p cnf 286 219
-1 -2 -3 -12 -13 -22 0
-1 -2 -4 -12 -14 -23 0
-1 -2 -5 -12 -15 -24 0
-1 -2 -6 -12 -16 -25 0
-1 -2 -7 -12 -17 -26 0
-1 -2 -8 -12 -18 -27 0
-1 -2 -9 -12 -19 -28 0
-1 -3 -4 -13 -14 -31 0
-1 -3 -5 -13 -15 -32 0
-1 -3 -6 -13 -16 -33 0
-1 -3 -7 -13 -17 -34 0
-1 -3 -8 -13 -18 -35 0
-1 -3 -9 -13 -19 -36 0
-1 -4 -5 -14 -15 -39 0
-1 -4 -6 -14 -16 -40 0
-1 -4 -7 -14 -17 -41 0
-1 -4 -8 -14 -18 -42 0
-1 -4 -9 -14 -19 -43 0
-1 -5 -6 -15 -16 -46 0
-1 -5 -7 -15 -17 -47 0
-1 -5 -8 -15 -18 -48 0
-1 -5 -9 -15 -19 -49 0
-1 -6 -7 -16 -17 -52 0
-1 -6 -8 -16 -18 -53 0
-1 -6 -9 -16 -19 -54 0
-1 -7 -8 -17 -18 -57 0
-1 -7 -9 -17 -19 -58 0
-1 -8 -9 -18 -19 -61 0
-2 -3 -4 -22 -23 -31 0
-2 -3 -5 -22 -24 -32 0
-2 -3 -6 -22 -25 -33 0
-2 -3 -7 -22 -26 -34 0
-2 -3 -8 -22 -27 -35 0
-2 -3 -9 -22 -28 -36 0
-2 -4 -5 -23 -24 -39 0
-2 -4 -6 -23 -25 -40 0
-2 -4 -7 -23 -26 -41 0
-2 -4 -8 -23 -27 -42 0
-2 -4 -9 -23 -28 -43 0
-2 -5 -6 -24 -25 -46 0
-2 -5 -7 -24 -26 -47 0
-2 -5 -8 -24 -27 -48 0
-2 -5 -9 -24 -28 -49 0
-2 -6 -7 -25 -26 -52 0
-2 -6 -8 -25 -27 -53 0
-2 -6 -9 -25 -28 -54 0
-2 -7 -8 -26 -27 -57 0
-2 -7 -9 -26 -28 -58 0
-2 -8 -9 -27 -28 -61 0
-3 -4 -5 -31 -32 -39 0
-3 -4 -6 -31 -33 -40 0
-3 -4 -7 -31 -34 -41 0
-3 -4 -8 -31 -35 -42 0
-3 -4 -9 -31 -36 -43 0
-3 -5 -6 -32 -33 -46 0
-3 -5 -7 -32 -34 -47 0
-3 -5 -8 -32 -35 -48 0
-3 -5 -9 -32 -36 -49 0
-3 -6 -7 -33 -34 -52 0
-3 -6 -8 -33 -35 -53 0
-3 -6 -9 -33 -36 -54 0
-3 -7 -8 -34 -35 -57 0
-3 -7 -9 -34 -36 -58 0
-3 -8 -9 -35 -36 -61 0
-4 -5 -6 -39 -40 -46 0
-4 -5 -7 -39 -41 -47 0
-4 -5 -8 -39 -42 -48 0
-4 -5 -9 -39 -43 -49 0
-4 -6 -7 -40 -41 -52 0
-4 -6 -8 -40 -42 -53 0
-4 -6 -9 -40 -43 -54 0
-4 -7 -8 -41 -42 -57 0
-4 -7 -9 -41 -43 -58 0
-4 -8 -9 -42 -43 -61 0
-5 -6 -7 -46 -47 -52 0
-5 -6 -8 -46 -48 -53 0
-5 -6 -9 -46 -49 -54 0
-5 -7 -8 -47 -48 -57 0
-5 -7 -9 -47 -49 -58 0
-5 -8 -9 -48 -49 -61 0
-6 -7 -8 -52 -53 -57 0
-6 -7 -9 -52 -54 -58 0
-6 -8 -9 -53 -54 -61 0
-7 -8 -9 -57 -58 -61 0
12 13 14 22 23 31 0
12 13 15 22 24 32 0
12 13 16 22 25 33 0
12 13 17 22 26 34 0
12 13 18 22 27 35 0
12 13 19 22 28 36 0
12 14 15 23 24 39 0
12 14 16 23 25 40 0
12 14 17 23 26 41 0
12 14 18 23 27 42 0
12 14 19 23 28 43 0
12 15 16 24 25 46 0
12 15 17 24 26 47 0
12 15 18 24 27 48 0
12 15 19 24 28 49 0
12 16 17 25 26 52 0
12 16 18 25 27 53 0
12 16 19 25 28 54 0
12 17 18 26 27 57 0
12 17 19 26 28 58 0
12 18 19 27 28 61 0
13 14 15 31 32 39 0
13 14 16 31 33 40 0
13 14 17 31 34 41 0
13 14 18 31 35 42 0
13 14 19 31 36 43 0
13 15 16 32 33 46 0
13 15 17 32 34 47 0
13 15 18 32 35 48 0
13 15 19 32 36 49 0
13 16 17 33 34 52 0
13 16 18 33 35 53 0
13 16 19 33 36 54 0
13 17 18 34 35 57 0
13 17 19 34 36 58 0
13 18 19 35 36 61 0
14 15 16 39 40 46 0
14 15 17 39 41 47 0
14 15 18 39 42 48 0
14 15 19 39 43 49 0
14 16 17 40 41 52 0
14 16 18 40 42 53 0
14 16 19 40 43 54 0
14 17 18 41 42 57 0
14 17 19 41 43 58 0
14 18 19 42 43 61 0
15 16 17 46 47 52 0
15 16 18 46 48 53 0
15 16 19 46 49 54 0
15 17 18 47 48 57 0
15 17 19 47 49 58 0
15 18 19 48 49 61 0
16 17 18 52 53 57 0
16 17 19 52 54 58 0
16 18 19 53 54 61 0
17 18 19 57 58 61 0
22 23 24 31 32 39 0
22 23 25 31 33 40 0
22 23 26 31 34 41 0
22 23 27 31 35 42 0
22 23 28 31 36 43 0
22 24 25 32 33 46 0
22 24 26 32 34 47 0
22 24 27 32 35 48 0
22 24 28 32 36 49 0
22 25 26 33 34 52 0
22 25 27 33 35 53 0
22 25 28 33 36 54 0
22 26 27 34 35 57 0
22 26 28 34 36 58 0
22 27 28 35 36 61 0
23 24 25 39 40 46 0
23 24 26 39 41 47 0
23 24 27 39 42 48 0
23 24 28 39 43 49 0
23 25 26 40 41 52 0
23 25 27 40 42 53 0
23 25 28 40 43 54 0
23 26 27 41 42 57 0
23 26 28 41 43 58 0
23 27 28 42 43 61 0
24 25 26 46 47 52 0
24 25 27 46 48 53 0
24 25 28 46 49 54 0
24 26 27 47 48 57 0
24 26 28 47 49 58 0
24 27 28 48 49 61 0
25 26 27 52 53 57 0
25 26 28 52 54 58 0
25 27 28 53 54 61 0
26 27 28 57 58 61 0
31 32 33 39 40 46 0
31 32 34 39 41 47 0
31 32 35 39 42 48 0
31 32 36 39 43 49 0
31 33 34 40 41 52 0
31 33 35 40 42 53 0
31 33 36 40 43 54 0
31 34 35 41 42 57 0
31 34 36 41 43 58 0
31 35 36 42 43 61 0
32 33 34 46 47 52 0
32 33 35 46 48 53 0
32 33 36 46 49 54 0
32 34 35 47 48 57 0
32 34 36 47 49 58 0
32 35 36 48 49 61 0
33 34 35 52 53 57 0
33 34 36 52 54 58 0
33 35 36 53 54 61 0
34 35 36 57 58 61 0
39 40 41 46 47 52 0
39 40 42 46 48 53 0
39 40 43 46 49 54 0
39 41 42 47 48 57 0
39 41 43 47 49 58 0
39 42 43 48 49 61 0
40 41 42 52 53 57 0
40 41 43 52 54 58 0
40 42 43 53 54 61 0
41 42 43 57 58 61 0
46 47 48 52 53 57 0
46 47 49 52 54 58 0
46 48 49 53 54 61 0
47 48 49 57 58 61 0
52 53 54 57 58 61 0
1 0
2 0
3 0
4 0
5 0
6 0
7 0
8 0
9 0
