p cnf 286 2210
-1 -2 -3 -12 -13 -22 0
-3 -4 -5 -31 -32 -39 0
-3 -4 -6 -31 -33 -40 0
-3 -5 -6 -32 -33 -46 0
-4 -5 -6 -39 -40 -46 0
7 8 9 57 58 61 0
7 8 10 57 59 62 0
7 8 11 57 60 63 0
7 9 10 58 59 64 0
7 9 11 58 60 65 0
7 10 11 59 60 66 0
8 9 10 61 62 64 0
8 9 11 61 63 65 0
8 10 11 62 63 66 0
9 10 11 64 65 66 0
-12 -17 -18 -26 -27 -57 0
-12 -17 -19 -26 -28 -58 0
-12 -18 -19 -27 -28 -61 0
-13 -17 -18 -34 -35 -57 0
-13 -17 -19 -34 -36 -58 0
-13 -18 -19 -35 -36 -61 0
14 15 16 39 40 46 0
14 15 20 39 44 50 0
14 15 21 39 45 51 0
14 16 20 40 44 55 0
14 16 21 40 45 56 0
14 20 21 44 45 66 0
15 16 20 46 50 55 0
15 16 21 46 51 56 0
15 20 21 50 51 66 0
16 20 21 55 56 66 0
-17 -18 -19 -57 -58 -61 0
22 23 24 31 32 39 0
22 23 25 31 33 40 0
22 23 26 31 34 41 0
22 23 27 31 35 42 0
22 23 28 31 36 43 0
22 23 29 31 37 44 0
22 23 30 31 38 45 0
22 24 25 32 33 46 0
22 24 26 32 34 47 0
22 24 27 32 35 48 0
22 24 28 32 36 49 0
22 24 29 32 37 50 0
22 24 30 32 38 51 0
22 25 26 33 34 52 0
22 25 27 33 35 53 0
22 25 28 33 36 54 0
22 25 29 33 37 55 0
22 25 30 33 38 56 0
22 26 27 34 35 57 0
22 26 28 34 36 58 0
22 26 29 34 37 59 0
22 26 30 34 38 60 0
22 27 28 35 36 61 0
22 27 29 35 37 62 0
22 27 30 35 38 63 0
22 28 29 36 37 64 0
22 28 30 36 38 65 0
22 29 30 37 38 66 0
23 24 26 39 41 47 0
23 24 27 39 42 48 0
23 24 28 39 43 49 0
23 25 26 40 41 52 0
23 25 27 40 42 53 0
23 25 28 40 43 54 0
23 26 27 41 42 57 0
23 26 28 41 43 58 0
23 26 29 41 44 59 0
23 26 30 41 45 60 0
23 27 28 42 43 61 0
23 27 29 42 44 62 0
23 27 30 42 45 63 0
23 28 29 43 44 64 0
23 28 30 43 45 65 0
24 25 26 46 47 52 0
24 25 27 46 48 53 0
24 25 28 46 49 54 0
24 26 27 47 48 57 0
24 26 28 47 49 58 0
24 26 29 47 50 59 0
24 26 30 47 51 60 0
24 27 28 48 49 61 0
24 27 29 48 50 62 0
24 27 30 48 51 63 0
24 28 29 49 50 64 0
24 28 30 49 51 65 0
24 29 30 50 51 66 0
25 26 27 52 53 57 0
25 26 28 52 54 58 0
25 26 29 52 55 59 0
25 26 30 52 56 60 0
25 27 28 53 54 61 0
25 27 29 53 55 62 0
25 27 30 53 56 63 0
25 28 29 54 55 64 0
25 28 30 54 56 65 0
-26 -29 -30 -59 -60 -66 0
-27 -29 -30 -62 -63 -66 0
-31 -32 -36 -39 -43 -49 0
31 34 35 41 42 57 0
31 34 36 41 43 58 0
-31 -34 -37 -41 -44 -59 0
31 34 37 41 44 59 0
-31 -34 -38 -41 -45 -60 0
31 34 38 41 45 60 0
31 35 36 42 43 61 0
-31 -35 -37 -42 -44 -62 0
-31 -35 -38 -42 -45 -63 0
-31 -36 -37 -43 -44 -64 0
31 36 37 43 44 64 0
-31 -36 -38 -43 -45 -65 0
-31 -37 -38 -44 -45 -66 0
32 34 35 47 48 57 0
-32 -34 -37 -47 -50 -59 0
-32 -34 -38 -47 -51 -60 0
32 35 36 48 49 61 0
-32 -35 -37 -48 -50 -62 0
32 35 37 48 50 62 0
-32 -35 -38 -48 -51 -63 0
-32 -36 -37 -49 -50 -64 0
32 36 37 49 50 64 0
-32 -36 -38 -49 -51 -65 0
-32 -37 -38 -50 -51 -66 0
-33 -34 -37 -52 -55 -59 0
33 34 37 52 55 59 0
-33 -34 -38 -52 -56 -60 0
33 34 38 52 56 60 0
33 35 36 53 54 61 0
-33 -35 -37 -53 -55 -62 0
33 35 37 53 55 62 0
-33 -35 -38 -53 -56 -63 0
-33 -36 -37 -54 -55 -64 0
33 36 37 54 55 64 0
-33 -36 -38 -54 -56 -65 0
33 36 38 54 56 65 0
-33 -37 -38 -55 -56 -66 0
-34 -37 -38 -59 -60 -66 0
-35 -37 -38 -62 -63 -66 0
-39 -41 -42 -47 -48 -57 0
39 41 42 47 48 57 0
-39 -41 -43 -47 -49 -58 0
-39 -41 -44 -47 -50 -59 0
-39 -41 -45 -47 -51 -60 0
-39 -42 -43 -48 -49 -61 0
-39 -42 -44 -48 -50 -62 0
-39 -42 -45 -48 -51 -63 0
-39 -43 -44 -49 -50 -64 0
-39 -43 -45 -49 -51 -65 0
-39 -44 -45 -50 -51 -66 0
-40 -41 -42 -52 -53 -57 0
40 41 42 52 53 57 0
-40 -41 -43 -52 -54 -58 0
-40 -41 -44 -52 -55 -59 0
-40 -41 -45 -52 -56 -60 0
-40 -42 -43 -53 -54 -61 0
40 42 43 53 54 61 0
-40 -42 -44 -53 -55 -62 0
-40 -42 -45 -53 -56 -63 0
-40 -43 -44 -54 -55 -64 0
-40 -43 -45 -54 -56 -65 0
-40 -44 -45 -55 -56 -66 0
-41 -42 -44 -57 -59 -62 0
-41 -42 -45 -57 -60 -63 0
-41 -43 -44 -58 -59 -64 0
-41 -43 -45 -58 -60 -65 0
-42 -43 -44 -61 -62 -64 0
-42 -43 -45 -61 -63 -65 0
-42 -44 -45 -62 -63 -66 0
-46 -47 -48 -52 -53 -57 0
-46 -47 -49 -52 -54 -58 0
-46 -47 -50 -52 -55 -59 0
-46 -47 -51 -52 -56 -60 0
-46 -48 -49 -53 -54 -61 0
46 48 49 53 54 61 0
-46 -48 -50 -53 -55 -62 0
-46 -48 -51 -53 -56 -63 0
-46 -49 -50 -54 -55 -64 0
-46 -49 -51 -54 -56 -65 0
-46 -50 -51 -55 -56 -66 0
-47 -48 -50 -57 -59 -62 0
-47 -48 -51 -57 -60 -63 0
-47 -49 -50 -58 -59 -64 0
-47 -49 -51 -58 -60 -65 0
-47 -50 -51 -59 -60 -66 0
-48 -49 -50 -61 -62 -64 0
-48 -49 -51 -61 -63 -65 0
-48 -50 -51 -62 -63 -66 0
-52 -53 -55 -57 -59 -62 0
-52 -53 -56 -57 -60 -63 0
-52 -54 -55 -58 -59 -64 0
-52 -54 -56 -58 -60 -65 0
-52 -55 -56 -59 -60 -66 0
-53 -54 -55 -61 -62 -64 0
-53 -54 -56 -61 -63 -65 0
-53 -55 -56 -62 -63 -66 0
67 -1 -2 -12 0
68 -1 -3 -13 0
86 -3 -4 -31 0
87 -3 -5 -32 0
88 -3 -6 -33 0
94 -4 -5 -39 0
95 -4 -6 -40 0
101 -5 -6 -46 0
112 7 8 57 0
113 7 9 58 0
114 7 10 59 0
115 7 11 60 0
116 8 9 61 0
117 8 10 62 0
118 8 11 63 0
119 9 10 64 0
120 9 11 65 0
121 10 11 66 0
126 -12 -17 -26 0
127 -12 -18 -27 0
128 -12 -19 -28 0
134 -13 -17 -34 0
135 -13 -18 -35 0
136 -13 -19 -36 0
139 14 15 39 0
140 14 16 40 0
144 14 20 44 0
145 14 21 45 0
146 15 16 46 0
150 15 20 50 0
151 15 21 51 0
155 16 20 55 0
156 16 21 56 0
157 -17 -18 -57 0
158 -17 -19 -58 0
161 -18 -19 -61 0
166 20 21 66 0
167 22 23 31 0
168 22 24 32 0
169 22 25 33 0
170 22 26 34 0
171 22 27 35 0
172 22 28 36 0
173 22 29 37 0
174 22 30 38 0
175 23 24 39 0
176 23 25 40 0
177 23 26 41 0
178 23 27 42 0
179 23 28 43 0
180 23 29 44 0
181 23 30 45 0
182 24 25 46 0
183 24 26 47 0
184 24 27 48 0
185 24 28 49 0
186 24 29 50 0
187 24 30 51 0
188 25 26 52 0
189 25 27 53 0
190 25 28 54 0
191 25 29 55 0
192 25 30 56 0
193 26 27 57 0
194 26 28 58 0
195 -26 -29 -59 0
195 26 29 59 0
196 -26 -30 -60 0
196 26 30 60 0
197 27 28 61 0
198 -27 -29 -62 0
198 27 29 62 0
199 -27 -30 -63 0
199 27 30 63 0
200 -28 -29 -64 0
200 28 29 64 0
201 -28 -30 -65 0
201 28 30 65 0
202 -29 -30 -66 0
202 29 30 66 0
203 -31 -32 -39 0
204 -31 -33 -40 0
205 -31 -34 -41 0
205 31 34 41 0
206 -31 -35 -42 0
206 31 35 42 0
207 -31 -36 -43 0
207 31 36 43 0
208 -31 -37 -44 0
208 31 37 44 0
209 -31 -38 -45 0
209 31 38 45 0
211 -32 -34 -47 0
211 32 34 47 0
212 -32 -35 -48 0
212 32 35 48 0
213 -32 -36 -49 0
213 32 36 49 0
214 -32 -37 -50 0
214 32 37 50 0
215 -32 -38 -51 0
215 32 38 51 0
216 -33 -34 -52 0
216 33 34 52 0
217 -33 -35 -53 0
217 33 35 53 0
218 -33 -36 -54 0
218 33 36 54 0
219 -33 -37 -55 0
219 33 37 55 0
220 -33 -38 -56 0
220 33 38 56 0
221 34 35 57 0
222 34 36 58 0
223 -34 -37 -59 0
223 34 37 59 0
224 -34 -38 -60 0
224 34 38 60 0
225 35 36 61 0
226 -35 -37 -62 0
226 35 37 62 0
227 -35 -38 -63 0
227 35 38 63 0
228 -36 -37 -64 0
228 36 37 64 0
229 -36 -38 -65 0
229 36 38 65 0
230 -37 -38 -66 0
230 37 38 66 0
232 -39 -41 -47 0
232 39 41 47 0
233 -39 -42 -48 0
233 39 42 48 0
234 -39 -43 -49 0
234 39 43 49 0
235 -39 -44 -50 0
236 -39 -45 -51 0
237 -40 -41 -52 0
237 40 41 52 0
238 -40 -42 -53 0
238 40 42 53 0
239 -40 -43 -54 0
239 40 43 54 0
240 -40 -44 -55 0
241 -40 -45 -56 0
242 -41 -42 -57 0
242 41 42 57 0
243 -41 -43 -58 0
243 41 43 58 0
244 -41 -44 -59 0
244 41 44 59 0
245 -41 -45 -60 0
245 41 45 60 0
246 -42 -43 -61 0
246 42 43 61 0
247 -42 -44 -62 0
247 42 44 62 0
248 -42 -45 -63 0
248 42 45 63 0
249 -43 -44 -64 0
249 43 44 64 0
250 -43 -45 -65 0
250 43 45 65 0
251 -44 -45 -66 0
252 -46 -47 -52 0
252 46 47 52 0
253 -46 -48 -53 0
253 46 48 53 0
254 -46 -49 -54 0
254 46 49 54 0
255 -46 -50 -55 0
256 -46 -51 -56 0
257 -47 -48 -57 0
257 47 48 57 0
258 -47 -49 -58 0
258 47 49 58 0
259 -47 -50 -59 0
259 47 50 59 0
260 -47 -51 -60 0
260 47 51 60 0
261 -48 -49 -61 0
261 48 49 61 0
262 -48 -50 -62 0
262 48 50 62 0
263 -48 -51 -63 0
263 48 51 63 0
264 -49 -50 -64 0
264 49 50 64 0
265 -49 -51 -65 0
265 49 51 65 0
266 -50 -51 -66 0
267 -52 -53 -57 0
267 52 53 57 0
268 -52 -54 -58 0
268 52 54 58 0
269 -52 -55 -59 0
269 52 55 59 0
270 -52 -56 -60 0
270 52 56 60 0
271 -53 -54 -61 0
271 53 54 61 0
272 -53 -55 -62 0
272 53 55 62 0
273 -53 -56 -63 0
273 53 56 63 0
274 -54 -55 -64 0
274 54 55 64 0
275 -54 -56 -65 0
275 54 56 65 0
276 -55 -56 -66 0
278 -57 -59 -62 0
279 -57 -60 -63 0
279 57 60 63 0
280 -58 -59 -64 0
280 58 59 64 0
281 -58 -60 -65 0
282 -59 -60 -66 0
283 -61 -62 -64 0
284 -61 -63 -65 0
285 -62 -63 -66 0
285 62 63 66 0
286 -64 -65 -66 0
286 64 65 66 0
-67 -205 -253 -286 0
-67 -205 -254 -285 0
-67 -205 -261 -276 0
-67 -205 -265 -272 0
-67 -206 -252 -286 0
-67 -206 -254 -282 0
-67 -206 -255 -281 0
-67 -206 -256 -280 0
-67 -206 -258 -276 0
-67 -206 -259 -275 0
-67 -207 -252 -285 0
-67 -207 -253 -282 0
-67 -207 -255 -279 0
-67 -207 -256 -278 0
-67 -207 -260 -272 0
-67 -207 -262 -270 0
-67 -207 -266 -267 0
-67 -208 -252 -284 0
-67 -208 -253 -281 0
-67 -208 -254 -279 0
-67 -208 -257 -275 0
-67 -208 -260 -271 0
-67 -208 -261 -270 0
-67 -208 -263 -268 0
-67 -209 -252 -283 0
-67 -209 -253 -280 0
-67 -209 -254 -278 0
-67 -209 -257 -274 0
-67 -209 -258 -272 0
-67 -209 -261 -269 0
-67 -211 -238 -286 0
-67 -211 -239 -285 0
-67 -211 -240 -284 0
-67 -211 -250 -272 0
-67 -212 -237 -286 0
-67 -212 -239 -282 0
-67 -212 -241 -280 0
-67 -212 -243 -276 0
-67 -212 -245 -274 0
-67 -212 -249 -270 0
-67 -212 -250 -269 0
-67 -213 -237 -285 0
-67 -213 -238 -282 0
-67 -213 -240 -279 0
-67 -213 -245 -272 0
-67 -213 -251 -267 0
-67 -214 -237 -284 0
-67 -214 -238 -281 0
-67 -214 -239 -279 0
-67 -214 -242 -275 0
-67 -214 -243 -273 0
-67 -214 -245 -271 0
-67 -214 -246 -270 0
-67 -214 -248 -268 0
-67 -214 -250 -267 0
-67 -215 -237 -283 0
-67 -215 -238 -280 0
-67 -215 -239 -278 0
-67 -215 -243 -272 0
-67 -215 -246 -269 0
-67 -215 -247 -268 0
-67 -216 -233 -286 0
-67 -216 -234 -285 0
-67 -216 -235 -284 0
-67 -216 -236 -283 0
-67 -216 -251 -261 0
-67 -217 -232 -286 0
-67 -217 -234 -282 0
-67 -217 -235 -281 0
-67 -217 -236 -280 0
-67 -217 -243 -266 0
-67 -218 -232 -285 0
-67 -218 -233 -282 0
-67 -218 -235 -279 0
-67 -218 -236 -278 0
-67 -218 -242 -266 0
-67 -219 -232 -284 0
-67 -219 -233 -281 0
-67 -219 -234 -279 0
-67 -219 -243 -263 0
-67 -219 -245 -261 0
-67 -219 -248 -258 0
-67 -219 -250 -257 0
-67 -220 -232 -283 0
-67 -220 -233 -280 0
-67 -220 -234 -278 0
-67 -220 -242 -264 0
-67 -220 -243 -262 0
-67 -220 -244 -261 0
-67 -220 -249 -257 0
-67 -221 -234 -276 0
-67 -221 -249 -256 0
-67 -221 -251 -254 0
-67 -222 -233 -276 0
-67 -222 -238 -266 0
-67 -222 -240 -263 0
-67 -222 -241 -262 0
-67 -222 -247 -256 0
-67 -222 -248 -255 0
-67 -222 -251 -253 0
-67 -223 -233 -275 0
-67 -223 -234 -273 0
-67 -223 -238 -265 0
-67 -223 -239 -263 0
-67 -223 -250 -253 0
-67 -224 -233 -274 0
-67 -224 -235 -271 0
-67 -224 -238 -264 0
-67 -224 -239 -262 0
-67 -224 -247 -254 0
-67 -224 -249 -253 0
-67 -225 -235 -270 0
-67 -225 -236 -269 0
-67 -225 -240 -260 0
-67 -225 -245 -255 0
-67 -225 -251 -252 0
-67 -226 -232 -275 0
-67 -226 -234 -270 0
-67 -226 -236 -268 0
-67 -226 -237 -265 0
-67 -226 -239 -260 0
-67 -226 -243 -256 0
-67 -226 -245 -254 0
-67 -227 -237 -264 0
-67 -227 -239 -259 0
-67 -227 -249 -252 0
-67 -228 -232 -273 0
-67 -228 -248 -252 0
-67 -229 -232 -272 0
-67 -229 -233 -269 0
-67 -229 -237 -262 0
-67 -229 -238 -259 0
-67 -229 -244 -253 0
-67 -229 -247 -252 0
-67 -230 -232 -271 0
-67 -230 -233 -268 0
-67 -230 -234 -267 0
-67 -230 -237 -261 0
-67 -230 -238 -258 0
-67 -230 -242 -254 0
-67 -230 -243 -253 0
-67 -230 -246 -252 0
-68 -175 -267 -286 0
-68 -175 -268 -285 0
-68 -175 -269 -284 0
-68 -175 -270 -283 0
-68 -175 -271 -282 0
-68 -175 -272 -281 0
-68 -175 -273 -280 0
-68 -175 -274 -279 0
-68 -175 -275 -278 0
-68 -176 -257 -286 0
-68 -176 -258 -285 0
-68 -176 -259 -284 0
-68 -176 -260 -283 0
-68 -176 -261 -282 0
-68 -176 -262 -281 0
-68 -176 -263 -280 0
-68 -176 -264 -279 0
-68 -176 -265 -278 0
-68 -177 -253 -286 0
-68 -177 -254 -285 0
-68 -177 -255 -284 0
-68 -177 -256 -283 0
-68 -177 -261 -276 0
-68 -177 -262 -275 0
-68 -177 -264 -273 0
-68 -178 -252 -286 0
-68 -178 -254 -282 0
-68 -178 -255 -281 0
-68 -178 -256 -280 0
-68 -178 -258 -276 0
-68 -178 -260 -274 0
-68 -178 -265 -269 0
-68 -179 -252 -285 0
-68 -179 -253 -282 0
-68 -179 -255 -279 0
-68 -179 -256 -278 0
-68 -179 -263 -269 0
-68 -179 -266 -267 0
-68 -180 -253 -281 0
-68 -180 -260 -271 0
-68 -180 -261 -270 0
-68 -181 -253 -280 0
-68 -182 -242 -286 0
-68 -182 -243 -285 0
-68 -182 -244 -284 0
-68 -182 -245 -283 0
-68 -182 -246 -282 0
-68 -182 -247 -281 0
-68 -182 -248 -280 0
-68 -182 -249 -279 0
-68 -182 -250 -278 0
-68 -183 -238 -286 0
-68 -183 -239 -285 0
-68 -183 -246 -276 0
-68 -183 -251 -271 0
-68 -184 -237 -286 0
-68 -184 -239 -282 0
-68 -184 -240 -281 0
-68 -184 -241 -280 0
-68 -184 -243 -276 0
-68 -184 -244 -275 0
-68 -184 -245 -274 0
-68 -184 -249 -270 0
-68 -184 -250 -269 0
-68 -184 -251 -268 0
-68 -185 -237 -285 0
-68 -185 -238 -282 0
-68 -185 -240 -279 0
-68 -185 -241 -278 0
-68 -185 -248 -269 0
-68 -185 -251 -267 0
-68 -186 -238 -281 0
-68 -186 -245 -271 0
-68 -187 -238 -280 0
-68 -188 -234 -285 0
-68 -188 -235 -284 0
-68 -188 -247 -265 0
-68 -188 -249 -263 0
-68 -188 -251 -261 0
-68 -189 -232 -286 0
-68 -189 -243 -266 0
-68 -189 -251 -258 0
-68 -190 -232 -285 0
-68 -190 -233 -282 0
-68 -190 -235 -279 0
-68 -190 -236 -278 0
-68 -190 -242 -266 0
-68 -190 -245 -262 0
-68 -190 -248 -259 0
-68 -190 -251 -257 0
-68 -191 -233 -281 0
-68 -192 -233 -280 0
-68 -192 -234 -278 0
-68 -192 -243 -262 0
-68 -193 -235 -275 0
-68 -193 -239 -266 0
-68 -193 -249 -256 0
-68 -194 -233 -276 0
-68 -194 -238 -266 0
-68 -194 -241 -262 0
-68 -194 -247 -256 0
-68 -194 -248 -255 0
-68 -194 -251 -253 0
-68 -195 -233 -275 0
-68 -195 -238 -265 0
-68 -195 -239 -263 0
-68 -195 -250 -253 0
-68 -196 -233 -274 0
-68 -196 -234 -272 0
-68 -196 -235 -271 0
-68 -196 -238 -264 0
-68 -196 -239 -262 0
-68 -196 -247 -254 0
-68 -196 -249 -253 0
-68 -197 -232 -276 0
-68 -197 -235 -270 0
-68 -197 -236 -269 0
-68 -197 -237 -266 0
-68 -197 -240 -260 0
-68 -197 -241 -259 0
-68 -197 -244 -256 0
-68 -197 -245 -255 0
-68 -197 -251 -252 0
-68 -198 -237 -265 0
-68 -198 -245 -254 0
-68 -198 -250 -252 0
-68 -199 -234 -269 0
-68 -199 -237 -264 0
-68 -199 -239 -259 0
-68 -200 -232 -273 0
-68 -200 -237 -263 0
-68 -200 -238 -260 0
-68 -200 -245 -253 0
-68 -201 -232 -272 0
-68 -201 -233 -269 0
-68 -201 -237 -262 0
-68 -201 -238 -259 0
-68 -201 -240 -257 0
-68 -201 -244 -253 0
-68 -201 -247 -252 0
-68 -202 -232 -271 0
-68 -202 -233 -268 0
-68 -202 -234 -267 0
-68 -202 -237 -261 0
-68 -202 -238 -258 0
-68 -202 -239 -257 0
-68 -202 -242 -254 0
-68 -202 -246 -252 0
-86 -126 -253 -286 0
-86 -126 -254 -285 0
-86 -126 -255 -284 0
-86 -126 -256 -283 0
-86 -126 -261 -276 0
-86 -126 -262 -275 0
-86 -126 -265 -272 0
-86 -126 -266 -271 0
-86 -127 -252 -286 0
-86 -127 -254 -282 0
-86 -127 -255 -281 0
-86 -127 -256 -280 0
-86 -127 -258 -276 0
-86 -127 -259 -275 0
-86 -127 -260 -274 0
-86 -127 -264 -270 0
-86 -127 -265 -269 0
-86 -127 -266 -268 0
-86 -128 -252 -285 0
-86 -128 -253 -282 0
-86 -128 -255 -279 0
-86 -128 -256 -278 0
-86 -128 -257 -276 0
-86 -128 -260 -272 0
-86 -128 -262 -270 0
-86 -128 -263 -269 0
-86 -128 -266 -267 0
-86 -146 -195 -284 0
-86 -146 -196 -283 0
-86 -146 -197 -282 0
-86 -146 -198 -281 0
-86 -146 -199 -280 0
-86 -146 -200 -279 0
-86 -146 -201 -278 0
-86 -150 -188 -284 0
-86 -150 -189 -281 0
-86 -150 -190 -279 0
-86 -150 -194 -273 0
-86 -150 -196 -271 0
-86 -150 -197 -270 0
-86 -150 -199 -268 0
-86 -150 -201 -267 0
-86 -151 -188 -283 0
-86 -151 -189 -280 0
-86 -151 -190 -278 0
-86 -151 -194 -272 0
-86 -151 -195 -271 0
-86 -151 -197 -269 0
-86 -151 -198 -268 0
-86 -151 -200 -267 0
-86 -155 -184 -281 0
-86 -155 -185 -279 0
-86 -155 -196 -261 0
-86 -155 -197 -260 0
-86 -155 -199 -258 0
-86 -156 -183 -283 0
-86 -156 -184 -280 0
-86 -156 -185 -278 0
-86 -156 -194 -262 0
-86 -156 -195 -261 0
-86 -156 -197 -259 0
-86 -156 -198 -258 0
-86 -156 -200 -257 0
-86 -157 -182 -286 0
-86 -157 -185 -276 0
-86 -157 -186 -275 0
-86 -157 -187 -274 0
-86 -157 -190 -266 0
-86 -157 -191 -265 0
-86 -157 -192 -264 0
-86 -157 -200 -256 0
-86 -157 -201 -255 0
-86 -157 -202 -254 0
-86 -158 -182 -285 0
-86 -158 -184 -276 0
-86 -158 -186 -273 0
-86 -158 -187 -272 0
-86 -158 -189 -266 0
-86 -158 -191 -263 0
-86 -158 -192 -262 0
-86 -158 -198 -256 0
-86 -158 -199 -255 0
-86 -158 -202 -253 0
-86 -161 -182 -282 0
-86 -161 -183 -276 0
-86 -161 -186 -270 0
-86 -161 -187 -269 0
-86 -161 -188 -266 0
-86 -161 -191 -260 0
-86 -161 -192 -259 0
-86 -161 -195 -256 0
-86 -161 -196 -255 0
-86 -161 -202 -252 0
-86 -166 -183 -271 0
-86 -166 -184 -268 0
-86 -166 -185 -267 0
-86 -166 -189 -258 0
-86 -166 -190 -257 0
-86 -166 -193 -254 0
-86 -166 -194 -253 0
-86 -166 -197 -252 0
-87 -126 -238 -286 0
-87 -126 -239 -285 0
-87 -126 -240 -284 0
-87 -126 -241 -283 0
-87 -126 -246 -276 0
-87 -126 -247 -275 0
-87 -126 -248 -274 0
-87 -126 -250 -272 0
-87 -126 -251 -271 0
-87 -127 -237 -286 0
-87 -127 -239 -282 0
-87 -127 -240 -281 0
-87 -127 -241 -280 0
-87 -127 -243 -276 0
-87 -127 -244 -275 0
-87 -127 -245 -274 0
-87 -127 -250 -269 0
-87 -127 -251 -268 0
-87 -128 -237 -285 0
-87 -128 -238 -282 0
-87 -128 -240 -279 0
-87 -128 -241 -278 0
-87 -128 -242 -276 0
-87 -128 -244 -273 0
-87 -128 -245 -272 0
-87 -128 -251 -267 0
-87 -140 -195 -284 0
-87 -140 -196 -283 0
-87 -140 -197 -282 0
-87 -140 -198 -281 0
-87 -140 -199 -280 0
-87 -140 -200 -279 0
-87 -140 -201 -278 0
-87 -144 -188 -284 0
-87 -144 -189 -281 0
-87 -144 -190 -279 0
-87 -144 -193 -275 0
-87 -144 -194 -273 0
-87 -144 -196 -271 0
-87 -144 -197 -270 0
-87 -144 -199 -268 0
-87 -144 -201 -267 0
-87 -145 -188 -283 0
-87 -145 -189 -280 0
-87 -145 -190 -278 0
-87 -145 -193 -274 0
-87 -145 -194 -272 0
-87 -145 -195 -271 0
-87 -145 -197 -269 0
-87 -145 -198 -268 0
-87 -145 -200 -267 0
-87 -155 -177 -284 0
-87 -155 -178 -281 0
-87 -155 -179 -279 0
-87 -155 -193 -250 0
-87 -155 -194 -248 0
-87 -155 -196 -246 0
-87 -155 -197 -245 0
-87 -155 -199 -243 0
-87 -155 -201 -242 0
-87 -156 -177 -283 0
-87 -156 -178 -280 0
-87 -156 -179 -278 0
-87 -156 -194 -247 0
-87 -156 -195 -246 0
-87 -156 -197 -244 0
-87 -156 -198 -243 0
-87 -157 -176 -286 0
-87 -157 -179 -276 0
-87 -157 -181 -274 0
-87 -157 -190 -251 0
-87 -157 -191 -250 0
-87 -157 -200 -241 0
-87 -157 -201 -240 0
-87 -157 -202 -239 0
-87 -158 -176 -285 0
-87 -158 -178 -276 0
-87 -158 -180 -273 0
-87 -158 -181 -272 0
-87 -158 -189 -251 0
-87 -158 -191 -248 0
-87 -158 -192 -247 0
-87 -158 -198 -241 0
-87 -158 -199 -240 0
-87 -158 -202 -238 0
-87 -161 -176 -282 0
-87 -161 -177 -276 0
-87 -161 -180 -270 0
-87 -161 -181 -269 0
-87 -161 -188 -251 0
-87 -161 -191 -245 0
-87 -161 -192 -244 0
-87 -161 -195 -241 0
-87 -161 -196 -240 0
-87 -161 -202 -237 0
-87 -166 -177 -271 0
-87 -166 -178 -268 0
-87 -166 -190 -242 0
-87 -166 -193 -239 0
-87 -166 -194 -238 0
-87 -166 -197 -237 0
-88 -126 -233 -286 0
-88 -126 -234 -285 0
-88 -126 -235 -284 0
-88 -126 -236 -283 0
-88 -126 -246 -266 0
-88 -126 -247 -265 0
-88 -126 -248 -264 0
-88 -126 -249 -263 0
-88 -126 -251 -261 0
-88 -127 -232 -286 0
-88 -127 -234 -282 0
-88 -127 -235 -281 0
-88 -127 -236 -280 0
-88 -127 -243 -266 0
-88 -127 -244 -265 0
-88 -127 -245 -264 0
-88 -127 -249 -260 0
-88 -127 -250 -259 0
-88 -127 -251 -258 0
-88 -128 -232 -285 0
-88 -128 -233 -282 0
-88 -128 -235 -279 0
-88 -128 -236 -278 0
-88 -128 -242 -266 0
-88 -128 -244 -263 0
-88 -128 -245 -262 0
-88 -128 -247 -260 0
-88 -128 -251 -257 0
-88 -139 -195 -284 0
-88 -139 -196 -283 0
-88 -139 -198 -281 0
-88 -139 -199 -280 0
-88 -139 -200 -279 0
-88 -139 -201 -278 0
-88 -144 -183 -284 0
-88 -144 -184 -281 0
-88 -144 -185 -279 0
-88 -144 -193 -265 0
-88 -144 -194 -263 0
-88 -144 -196 -261 0
-88 -144 -197 -260 0
-88 -144 -199 -258 0
-88 -144 -201 -257 0
-88 -145 -183 -283 0
-88 -145 -184 -280 0
-88 -145 -185 -278 0
-88 -145 -193 -264 0
-88 -145 -194 -262 0
-88 -145 -195 -261 0
-88 -145 -197 -259 0
-88 -145 -198 -258 0
-88 -145 -200 -257 0
-88 -150 -177 -284 0
-88 -150 -178 -281 0
-88 -150 -179 -279 0
-88 -150 -193 -250 0
-88 -150 -194 -248 0
-88 -150 -196 -246 0
-88 -150 -197 -245 0
-88 -150 -199 -243 0
-88 -150 -201 -242 0
-88 -151 -177 -283 0
-88 -151 -178 -280 0
-88 -151 -179 -278 0
-88 -151 -193 -249 0
-88 -151 -194 -247 0
-88 -151 -195 -246 0
-88 -151 -197 -244 0
-88 -151 -198 -243 0
-88 -151 -200 -242 0
-88 -157 -175 -286 0
-88 -157 -179 -266 0
-88 -157 -180 -265 0
-88 -157 -181 -264 0
-88 -157 -185 -251 0
-88 -157 -186 -250 0
-88 -157 -200 -236 0
-88 -157 -201 -235 0
-88 -157 -202 -234 0
-88 -158 -175 -285 0
-88 -158 -178 -266 0
-88 -158 -180 -263 0
-88 -158 -181 -262 0
-88 -158 -184 -251 0
-88 -158 -186 -248 0
-88 -158 -187 -247 0
-88 -158 -198 -236 0
-88 -158 -199 -235 0
-88 -158 -202 -233 0
-88 -161 -175 -282 0
-88 -161 -177 -266 0
-88 -161 -180 -260 0
-88 -161 -181 -259 0
-88 -161 -183 -251 0
-88 -161 -186 -245 0
-88 -161 -187 -244 0
-88 -161 -195 -236 0
-88 -161 -196 -235 0
-88 -161 -202 -232 0
-88 -166 -177 -261 0
-88 -166 -178 -258 0
-88 -166 -179 -257 0
-88 -166 -183 -246 0
-88 -166 -184 -243 0
-88 -166 -185 -242 0
-88 -166 -193 -234 0
-88 -166 -194 -233 0
-88 -166 -197 -232 0
-94 -126 -217 -286 0
-94 -126 -218 -285 0
-94 -126 -219 -284 0
-94 -126 -220 -283 0
-94 -126 -225 -276 0
-94 -126 -226 -275 0
-94 -126 -227 -274 0
-94 -126 -229 -272 0
-94 -126 -230 -271 0
-94 -127 -216 -286 0
-94 -127 -218 -282 0
-94 -127 -219 -281 0
-94 -127 -220 -280 0
-94 -127 -222 -276 0
-94 -127 -223 -275 0
-94 -127 -224 -274 0
-94 -127 -228 -270 0
-94 -127 -229 -269 0
-94 -127 -230 -268 0
-94 -128 -216 -285 0
-94 -128 -217 -282 0
-94 -128 -219 -279 0
-94 -128 -220 -278 0
-94 -128 -223 -273 0
-94 -128 -224 -272 0
-94 -128 -226 -270 0
-94 -128 -227 -269 0
-94 -128 -230 -267 0
-94 -134 -189 -286 0
-94 -134 -190 -285 0
-94 -134 -197 -276 0
-94 -134 -198 -275 0
-94 -134 -199 -274 0
-94 -134 -200 -273 0
-94 -134 -201 -272 0
-94 -134 -202 -271 0
-94 -135 -190 -282 0
-94 -135 -191 -281 0
-94 -135 -192 -280 0
-94 -135 -194 -276 0
-94 -135 -195 -275 0
-94 -135 -196 -274 0
-94 -135 -200 -270 0
-94 -135 -201 -269 0
-94 -135 -202 -268 0
-94 -136 -189 -282 0
-94 -136 -196 -272 0
-94 -136 -198 -270 0
-94 -136 -199 -269 0
-94 -136 -202 -267 0
-94 -155 -170 -284 0
-94 -155 -171 -281 0
-94 -155 -196 -225 0
-94 -155 -197 -224 0
-94 -155 -199 -222 0
-94 -155 -201 -221 0
-94 -156 -170 -283 0
-94 -156 -172 -278 0
-94 -156 -195 -225 0
-94 -156 -197 -223 0
-94 -156 -200 -221 0
-94 -157 -169 -286 0
-94 -157 -172 -276 0
-94 -157 -174 -274 0
-94 -157 -190 -230 0
-94 -157 -200 -220 0
-94 -157 -201 -219 0
-94 -157 -202 -218 0
-94 -158 -169 -285 0
-94 -158 -171 -276 0
-94 -158 -173 -273 0
-94 -158 -174 -272 0
-94 -158 -189 -230 0
-94 -158 -191 -227 0
-94 -158 -192 -226 0
-94 -158 -198 -220 0
-94 -158 -199 -219 0
-94 -158 -202 -217 0
-94 -161 -169 -282 0
-94 -161 -170 -276 0
-94 -161 -173 -270 0
-94 -161 -174 -269 0
-94 -161 -188 -230 0
-94 -161 -191 -224 0
-94 -161 -192 -223 0
-94 -161 -195 -220 0
-94 -161 -196 -219 0
-94 -161 -202 -216 0
-94 -166 -170 -271 0
-94 -166 -171 -268 0
-94 -166 -172 -267 0
-94 -166 -188 -225 0
-94 -166 -189 -222 0
-94 -166 -190 -221 0
-94 -166 -193 -218 0
-94 -166 -194 -217 0
-94 -166 -197 -216 0
-95 -126 -212 -286 0
-95 -126 -213 -285 0
-95 -126 -214 -284 0
-95 -126 -215 -283 0
-95 -126 -225 -266 0
-95 -126 -226 -265 0
-95 -126 -227 -264 0
-95 -126 -228 -263 0
-95 -126 -229 -262 0
-95 -126 -230 -261 0
-95 -127 -211 -286 0
-95 -127 -213 -282 0
-95 -127 -214 -281 0
-95 -127 -215 -280 0
-95 -127 -222 -266 0
-95 -127 -223 -265 0
-95 -127 -224 -264 0
-95 -127 -228 -260 0
-95 -127 -229 -259 0
-95 -127 -230 -258 0
-95 -128 -211 -285 0
-95 -128 -212 -282 0
-95 -128 -214 -279 0
-95 -128 -215 -278 0
-95 -128 -221 -266 0
-95 -128 -223 -263 0
-95 -128 -224 -262 0
-95 -128 -226 -260 0
-95 -128 -227 -259 0
-95 -128 -230 -257 0
-95 -134 -184 -286 0
-95 -134 -185 -285 0
-95 -134 -187 -283 0
-95 -134 -197 -266 0
-95 -134 -198 -265 0
-95 -134 -199 -264 0
-95 -134 -200 -263 0
-95 -134 -201 -262 0
-95 -134 -202 -261 0
-95 -135 -183 -286 0
-95 -135 -186 -281 0
-95 -135 -187 -280 0
-95 -135 -194 -266 0
-95 -135 -195 -265 0
-95 -135 -196 -264 0
-95 -135 -200 -260 0
-95 -135 -201 -259 0
-95 -135 -202 -258 0
-95 -136 -183 -285 0
-95 -136 -184 -282 0
-95 -136 -186 -279 0
-95 -136 -193 -266 0
-95 -136 -195 -263 0
-95 -136 -196 -262 0
-95 -136 -198 -260 0
-95 -136 -199 -259 0
-95 -136 -202 -257 0
-95 -150 -170 -284 0
-95 -150 -171 -281 0
-95 -150 -172 -279 0
-95 -150 -193 -229 0
-95 -150 -194 -227 0
-95 -150 -196 -225 0
-95 -150 -197 -224 0
-95 -150 -199 -222 0
-95 -150 -201 -221 0
-95 -151 -170 -283 0
-95 -151 -171 -280 0
-95 -151 -172 -278 0
-95 -151 -193 -228 0
-95 -151 -194 -226 0
-95 -151 -195 -225 0
-95 -151 -197 -223 0
-95 -151 -198 -222 0
-95 -151 -200 -221 0
-95 -157 -168 -286 0
-95 -157 -172 -266 0
-95 -157 -173 -265 0
-95 -157 -174 -264 0
-95 -157 -185 -230 0
-95 -157 -186 -229 0
-95 -157 -187 -228 0
-95 -157 -200 -215 0
-95 -157 -201 -214 0
-95 -157 -202 -213 0
-95 -158 -168 -285 0
-95 -158 -171 -266 0
-95 -158 -173 -263 0
-95 -158 -174 -262 0
-95 -158 -184 -230 0
-95 -158 -186 -227 0
-95 -158 -187 -226 0
-95 -158 -198 -215 0
-95 -158 -199 -214 0
-95 -158 -202 -212 0
-95 -161 -168 -282 0
-95 -161 -170 -266 0
-95 -161 -173 -260 0
-95 -161 -174 -259 0
-95 -161 -183 -230 0
-95 -161 -186 -224 0
-95 -161 -187 -223 0
-95 -161 -195 -215 0
-95 -161 -196 -214 0
-95 -161 -202 -211 0
-95 -166 -170 -261 0
-95 -166 -171 -258 0
-95 -166 -172 -257 0
-95 -166 -183 -225 0
-95 -166 -184 -222 0
-95 -166 -185 -221 0
-95 -166 -193 -213 0
-95 -166 -194 -212 0
-95 -166 -197 -211 0
-101 -126 -206 -286 0
-101 -126 -207 -285 0
-101 -126 -208 -284 0
-101 -126 -209 -283 0
-101 -126 -225 -251 0
-101 -126 -226 -250 0
-101 -126 -227 -249 0
-101 -126 -228 -248 0
-101 -126 -229 -247 0
-101 -126 -230 -246 0
-101 -127 -205 -286 0
-101 -127 -207 -282 0
-101 -127 -208 -281 0
-101 -127 -209 -280 0
-101 -127 -222 -251 0
-101 -127 -223 -250 0
-101 -127 -224 -249 0
-101 -127 -228 -245 0
-101 -127 -229 -244 0
-101 -127 -230 -243 0
-101 -128 -205 -285 0
-101 -128 -206 -282 0
-101 -128 -208 -279 0
-101 -128 -209 -278 0
-101 -128 -221 -251 0
-101 -128 -223 -248 0
-101 -128 -224 -247 0
-101 -128 -226 -245 0
-101 -128 -227 -244 0
-101 -128 -230 -242 0
-101 -134 -179 -285 0
-101 -134 -180 -284 0
-101 -134 -181 -283 0
-101 -134 -197 -251 0
-101 -134 -198 -250 0
-101 -134 -199 -249 0
-101 -134 -200 -248 0
-101 -134 -201 -247 0
-101 -134 -202 -246 0
-101 -135 -177 -286 0
-101 -135 -179 -282 0
-101 -135 -180 -281 0
-101 -135 -181 -280 0
-101 -135 -194 -251 0
-101 -135 -195 -250 0
-101 -135 -196 -249 0
-101 -135 -200 -245 0
-101 -135 -201 -244 0
-101 -135 -202 -243 0
-101 -136 -177 -285 0
-101 -136 -178 -282 0
-101 -136 -180 -279 0
-101 -136 -193 -251 0
-101 -136 -195 -248 0
-101 -136 -196 -247 0
-101 -136 -198 -245 0
-101 -136 -199 -244 0
-101 -136 -202 -242 0
-101 -144 -170 -284 0
-101 -144 -171 -281 0
-101 -144 -172 -279 0
-101 -144 -193 -229 0
-101 -144 -194 -227 0
-101 -144 -196 -225 0
-101 -144 -197 -224 0
-101 -144 -199 -222 0
-101 -144 -201 -221 0
-101 -145 -170 -283 0
-101 -145 -171 -280 0
-101 -145 -172 -278 0
-101 -145 -193 -228 0
-101 -145 -194 -226 0
-101 -145 -195 -225 0
-101 -145 -197 -223 0
-101 -145 -198 -222 0
-101 -145 -200 -221 0
-101 -157 -167 -286 0
-101 -157 -172 -251 0
-101 -157 -173 -250 0
-101 -157 -174 -249 0
-101 -157 -179 -230 0
-101 -157 -180 -229 0
-101 -157 -181 -228 0
-101 -157 -200 -209 0
-101 -157 -201 -208 0
-101 -157 -202 -207 0
-101 -158 -167 -285 0
-101 -158 -171 -251 0
-101 -158 -173 -248 0
-101 -158 -174 -247 0
-101 -158 -178 -230 0
-101 -158 -180 -227 0
-101 -158 -181 -226 0
-101 -158 -198 -209 0
-101 -158 -199 -208 0
-101 -158 -202 -206 0
-101 -161 -167 -282 0
-101 -161 -170 -251 0
-101 -161 -173 -245 0
-101 -161 -174 -244 0
-101 -161 -177 -230 0
-101 -161 -180 -224 0
-101 -161 -181 -223 0
-101 -161 -195 -209 0
-101 -161 -196 -208 0
-101 -161 -202 -205 0
-101 -166 -170 -246 0
-101 -166 -171 -243 0
-101 -166 -172 -242 0
-101 -166 -177 -225 0
-101 -166 -178 -222 0
-101 -166 -179 -221 0
-101 -166 -193 -207 0
-101 -166 -194 -206 0
-101 -166 -197 -205 0
-112 -128 -208 -256 0
-112 -128 -209 -255 0
-112 -128 -214 -241 0
-112 -128 -215 -240 0
-112 -128 -219 -236 0
-112 -128 -220 -235 0
-112 -136 -175 -276 0
-112 -136 -176 -266 0
-112 -136 -180 -256 0
-112 -136 -181 -255 0
-112 -136 -182 -251 0
-112 -136 -186 -241 0
-112 -136 -187 -240 0
-112 -136 -191 -236 0
-112 -136 -192 -235 0
-112 -139 -169 -286 0
-112 -139 -172 -276 0
-112 -139 -173 -275 0
-112 -139 -174 -274 0
-112 -139 -190 -230 0
-112 -139 -200 -220 0
-112 -139 -201 -219 0
-112 -139 -202 -218 0
-112 -140 -168 -286 0
-112 -140 -172 -266 0
-112 -140 -173 -265 0
-112 -140 -174 -264 0
-112 -140 -185 -230 0
-112 -140 -200 -215 0
-112 -140 -201 -214 0
-112 -140 -202 -213 0
-112 -144 -168 -275 0
-112 -144 -169 -265 0
-112 -144 -172 -256 0
-112 -144 -182 -229 0
-112 -144 -185 -220 0
-112 -144 -187 -218 0
-112 -144 -190 -215 0
-112 -144 -192 -213 0
-112 -145 -168 -274 0
-112 -145 -169 -264 0
-112 -145 -172 -255 0
-112 -145 -182 -228 0
-112 -145 -185 -219 0
-112 -145 -186 -218 0
-112 -145 -190 -214 0
-112 -145 -191 -213 0
-112 -146 -167 -286 0
-112 -146 -172 -251 0
-112 -146 -173 -250 0
-112 -146 -174 -249 0
-112 -146 -179 -230 0
-112 -146 -180 -229 0
-112 -146 -200 -209 0
-112 -146 -201 -208 0
-112 -146 -202 -207 0
-112 -150 -167 -275 0
-112 -150 -169 -250 0
-112 -150 -172 -241 0
-112 -150 -176 -229 0
-112 -150 -179 -220 0
-112 -150 -181 -218 0
-112 -150 -190 -209 0
-112 -150 -192 -207 0
-112 -151 -167 -274 0
-112 -151 -169 -249 0
-112 -151 -172 -240 0
-112 -151 -176 -228 0
-112 -151 -179 -219 0
-112 -151 -180 -218 0
-112 -151 -190 -208 0
-112 -151 -191 -207 0
-112 -155 -167 -265 0
-112 -155 -168 -250 0
-112 -155 -172 -236 0
-112 -155 -174 -234 0
-112 -155 -175 -229 0
-112 -155 -179 -215 0
-112 -155 -181 -213 0
-112 -155 -185 -209 0
-112 -155 -187 -207 0
-112 -156 -167 -264 0
-112 -156 -168 -249 0
-112 -156 -172 -235 0
-112 -156 -175 -228 0
-112 -156 -179 -214 0
-112 -156 -180 -213 0
-112 -156 -185 -208 0
-112 -156 -186 -207 0
-112 -166 -167 -254 0
-112 -166 -168 -239 0
-112 -166 -169 -234 0
-112 -166 -175 -218 0
-112 -166 -176 -213 0
-112 -166 -182 -207 0
-113 -127 -208 -256 0
-113 -127 -209 -255 0
-113 -127 -214 -241 0
-113 -127 -215 -240 0
-113 -127 -219 -236 0
-113 -127 -220 -235 0
-113 -135 -175 -276 0
-113 -135 -176 -266 0
-113 -135 -182 -251 0
-113 -139 -169 -285 0
-113 -139 -171 -276 0
-113 -139 -173 -273 0
-113 -139 -174 -272 0
-113 -139 -189 -230 0
-113 -139 -198 -220 0
-113 -139 -199 -219 0
-113 -139 -202 -217 0
-113 -140 -168 -285 0
-113 -140 -171 -266 0
-113 -140 -173 -263 0
-113 -140 -174 -262 0
-113 -140 -184 -230 0
-113 -140 -186 -227 0
-113 -140 -198 -215 0
-113 -140 -199 -214 0
-113 -140 -202 -212 0
-113 -144 -168 -273 0
-113 -144 -169 -263 0
-113 -144 -171 -256 0
-113 -144 -182 -227 0
-113 -144 -184 -220 0
-113 -144 -187 -217 0
-113 -144 -189 -215 0
-113 -144 -192 -212 0
-113 -145 -168 -272 0
-113 -145 -169 -262 0
-113 -145 -171 -255 0
-113 -145 -173 -253 0
-113 -145 -182 -226 0
-113 -145 -184 -219 0
-113 -145 -189 -214 0
-113 -145 -191 -212 0
-113 -146 -167 -285 0
-113 -146 -171 -251 0
-113 -146 -173 -248 0
-113 -146 -174 -247 0
-113 -146 -178 -230 0
-113 -146 -198 -209 0
-113 -146 -199 -208 0
-113 -150 -167 -273 0
-113 -150 -169 -248 0
-113 -150 -171 -241 0
-113 -150 -176 -227 0
-113 -150 -178 -220 0
-113 -150 -189 -209 0
-113 -151 -167 -272 0
-113 -151 -169 -247 0
-113 -151 -171 -240 0
-113 -151 -173 -238 0
-113 -151 -176 -226 0
-113 -151 -178 -219 0
-113 -151 -189 -208 0
-113 -155 -167 -263 0
-113 -155 -168 -248 0
-113 -155 -171 -236 0
-113 -155 -175 -227 0
-113 -155 -178 -215 0
-113 -155 -184 -209 0
-113 -155 -187 -206 0
-113 -156 -167 -262 0
-113 -156 -168 -247 0
-113 -156 -175 -226 0
-113 -156 -180 -212 0
-113 -156 -184 -208 0
-113 -166 -167 -253 0
-113 -166 -168 -238 0
-113 -166 -169 -233 0
-113 -166 -175 -217 0
-113 -166 -176 -212 0
-113 -166 -182 -206 0
-114 -127 -207 -256 0
-114 -127 -209 -254 0
-114 -127 -213 -241 0
-114 -127 -215 -239 0
-114 -127 -218 -236 0
-114 -127 -220 -234 0
-114 -128 -204 -263 0
-114 -128 -206 -256 0
-114 -128 -209 -253 0
-114 -128 -212 -241 0
-114 -128 -215 -238 0
-114 -128 -217 -236 0
-114 -128 -220 -233 0
-114 -135 -175 -275 0
-114 -135 -176 -265 0
-114 -135 -179 -256 0
-114 -135 -181 -254 0
-114 -135 -182 -250 0
-114 -135 -185 -241 0
-114 -135 -190 -236 0
-114 -136 -175 -273 0
-114 -136 -176 -263 0
-114 -136 -178 -256 0
-114 -136 -181 -253 0
-114 -136 -182 -248 0
-114 -136 -184 -241 0
-114 -139 -169 -284 0
-114 -139 -171 -275 0
-114 -139 -172 -273 0
-114 -139 -174 -271 0
-114 -139 -189 -229 0
-114 -139 -190 -227 0
-114 -139 -192 -225 0
-114 -139 -197 -220 0
-114 -139 -199 -218 0
-114 -139 -201 -217 0
-114 -140 -168 -284 0
-114 -140 -171 -265 0
-114 -140 -172 -263 0
-114 -140 -174 -261 0
-114 -140 -184 -229 0
-114 -140 -185 -227 0
-114 -140 -187 -225 0
-114 -140 -197 -215 0
-114 -140 -199 -213 0
-114 -140 -201 -212 0
-114 -145 -168 -271 0
-114 -145 -169 -261 0
-114 -145 -171 -254 0
-114 -145 -172 -253 0
-114 -145 -182 -225 0
-114 -145 -184 -218 0
-114 -145 -185 -217 0
-114 -145 -189 -213 0
-114 -145 -190 -212 0
-114 -146 -167 -284 0
-114 -146 -171 -250 0
-114 -146 -172 -248 0
-114 -146 -178 -229 0
-114 -146 -179 -227 0
-114 -146 -197 -209 0
-114 -146 -199 -207 0
-114 -146 -201 -206 0
-114 -151 -167 -271 0
-114 -151 -169 -246 0
-114 -151 -171 -239 0
-114 -151 -172 -238 0
-114 -151 -176 -225 0
-114 -151 -178 -218 0
-114 -151 -189 -207 0
-114 -151 -190 -206 0
-114 -156 -167 -261 0
-114 -156 -168 -246 0
-114 -156 -171 -234 0
-114 -156 -172 -233 0
-114 -156 -175 -225 0
-114 -156 -179 -212 0
-114 -156 -184 -207 0
-114 -161 -167 -256 0
-114 -161 -168 -241 0
-114 -161 -169 -236 0
-114 -161 -175 -220 0
-114 -161 -176 -215 0
-114 -161 -182 -209 0
-115 -127 -207 -255 0
-115 -127 -208 -254 0
-115 -127 -213 -240 0
-115 -127 -214 -239 0
-115 -127 -218 -235 0
-115 -127 -219 -234 0
-115 -128 -206 -255 0
-115 -128 -208 -253 0
-115 -128 -212 -240 0
-115 -128 -214 -238 0
-115 -128 -217 -235 0
-115 -128 -219 -233 0
-115 -135 -175 -274 0
-115 -135 -176 -264 0
-115 -135 -179 -255 0
-115 -135 -182 -249 0
-115 -135 -185 -240 0
-115 -135 -186 -239 0
-115 -135 -190 -235 0
-115 -135 -191 -234 0
-115 -136 -175 -272 0
-115 -136 -176 -262 0
-115 -136 -180 -253 0
-115 -136 -182 -247 0
-115 -136 -184 -240 0
-115 -136 -186 -238 0
-115 -139 -169 -283 0
-115 -139 -171 -274 0
-115 -139 -172 -272 0
-115 -139 -173 -271 0
-115 -139 -189 -228 0
-115 -139 -190 -226 0
-115 -139 -191 -225 0
-115 -139 -197 -219 0
-115 -139 -200 -217 0
-115 -140 -168 -283 0
-115 -140 -171 -264 0
-115 -140 -172 -262 0
-115 -140 -173 -261 0
-115 -140 -184 -228 0
-115 -140 -185 -226 0
-115 -140 -197 -214 0
-115 -140 -198 -213 0
-115 -140 -200 -212 0
-115 -144 -168 -271 0
-115 -144 -169 -261 0
-115 -144 -171 -254 0
-115 -144 -172 -253 0
-115 -144 -182 -225 0
-115 -144 -184 -218 0
-115 -144 -185 -217 0
-115 -144 -189 -213 0
-115 -144 -190 -212 0
-115 -146 -167 -283 0
-115 -146 -171 -249 0
-115 -146 -172 -247 0
-115 -146 -173 -246 0
-115 -146 -178 -228 0
-115 -146 -179 -226 0
-115 -146 -180 -225 0
-115 -146 -197 -208 0
-115 -146 -198 -207 0
-115 -146 -200 -206 0
-115 -150 -167 -271 0
-115 -150 -169 -246 0
-115 -150 -171 -239 0
-115 -150 -172 -238 0
-115 -150 -176 -225 0
-115 -150 -178 -218 0
-115 -150 -179 -217 0
-115 -150 -189 -207 0
-115 -150 -190 -206 0
-115 -155 -167 -261 0
-115 -155 -168 -246 0
-115 -155 -171 -234 0
-115 -155 -172 -233 0
-115 -155 -175 -225 0
-115 -155 -178 -213 0
-115 -155 -179 -212 0
-115 -155 -184 -207 0
-115 -155 -185 -206 0
-115 -161 -167 -255 0
-115 -161 -168 -240 0
-115 -161 -169 -235 0
-115 -161 -175 -219 0
-115 -161 -176 -214 0
-115 -161 -182 -208 0
-116 -126 -208 -256 0
-116 -126 -209 -255 0
-116 -126 -214 -241 0
-116 -126 -215 -240 0
-116 -126 -219 -236 0
-116 -126 -220 -235 0
-116 -134 -175 -276 0
-116 -134 -176 -266 0
-116 -134 -180 -256 0
-116 -134 -181 -255 0
-116 -134 -182 -251 0
-116 -139 -169 -282 0
-116 -139 -170 -276 0
-116 -139 -173 -270 0
-116 -139 -174 -269 0
-116 -139 -188 -230 0
-116 -139 -192 -223 0
-116 -139 -195 -220 0
-116 -139 -196 -219 0
-116 -139 -202 -216 0
-116 -140 -168 -282 0
-116 -140 -170 -266 0
-116 -140 -173 -260 0
-116 -140 -174 -259 0
-116 -140 -183 -230 0
-116 -140 -186 -224 0
-116 -140 -195 -215 0
-116 -140 -196 -214 0
-116 -140 -202 -211 0
-116 -144 -168 -270 0
-116 -144 -169 -260 0
-116 -144 -170 -256 0
-116 -144 -174 -252 0
-116 -144 -182 -224 0
-116 -144 -183 -220 0
-116 -144 -187 -216 0
-116 -144 -188 -215 0
-116 -144 -192 -211 0
-116 -145 -168 -269 0
-116 -145 -169 -259 0
-116 -145 -170 -255 0
-116 -145 -182 -223 0
-116 -145 -183 -219 0
-116 -145 -188 -214 0
-116 -145 -191 -211 0
-116 -146 -167 -282 0
-116 -146 -170 -251 0
-116 -146 -173 -245 0
-116 -146 -174 -244 0
-116 -146 -177 -230 0
-116 -146 -195 -209 0
-116 -146 -196 -208 0
-116 -146 -202 -205 0
-116 -150 -167 -270 0
-116 -150 -169 -245 0
-116 -150 -170 -241 0
-116 -150 -174 -237 0
-116 -150 -176 -224 0
-116 -150 -177 -220 0
-116 -150 -181 -216 0
-116 -150 -188 -209 0
-116 -151 -167 -269 0
-116 -151 -169 -244 0
-116 -151 -170 -240 0
-116 -151 -176 -223 0
-116 -151 -177 -219 0
-116 -151 -188 -208 0
-116 -151 -191 -205 0
-116 -155 -167 -260 0
-116 -155 -168 -245 0
-116 -155 -170 -236 0
-116 -155 -174 -232 0
-116 -155 -175 -224 0
-116 -155 -177 -215 0
-116 -155 -181 -211 0
-116 -155 -183 -209 0
-116 -155 -187 -205 0
-116 -156 -167 -259 0
-116 -156 -168 -244 0
-116 -156 -175 -223 0
-116 -156 -177 -214 0
-116 -156 -183 -208 0
-116 -156 -186 -205 0
-116 -156 -195 -203 0
-116 -166 -167 -252 0
-116 -166 -168 -237 0
-116 -166 -169 -232 0
-116 -166 -175 -216 0
-116 -166 -176 -211 0
-116 -166 -182 -205 0
-117 -126 -207 -256 0
-117 -126 -209 -254 0
-117 -126 -213 -241 0
-117 -126 -215 -239 0
-117 -126 -218 -236 0
-117 -126 -220 -234 0
-117 -128 -205 -256 0
-117 -128 -209 -252 0
-117 -128 -211 -241 0
-117 -128 -215 -237 0
-117 -128 -216 -236 0
-117 -128 -220 -232 0
-117 -134 -175 -275 0
-117 -134 -176 -265 0
-117 -134 -182 -250 0
-117 -134 -187 -239 0
-117 -134 -192 -234 0
-117 -136 -175 -270 0
-117 -136 -176 -260 0
-117 -136 -177 -256 0
-117 -136 -182 -245 0
-117 -136 -188 -236 0
-117 -139 -169 -281 0
-117 -139 -170 -275 0
-117 -139 -172 -270 0
-117 -139 -174 -268 0
-117 -139 -188 -229 0
-117 -139 -190 -224 0
-117 -139 -194 -220 0
-117 -139 -201 -216 0
-117 -140 -168 -281 0
-117 -140 -170 -265 0
-117 -140 -172 -260 0
-117 -140 -183 -229 0
-117 -140 -185 -224 0
-117 -140 -194 -215 0
-117 -140 -196 -213 0
-117 -140 -201 -211 0
-117 -145 -168 -268 0
-117 -145 -169 -258 0
-117 -145 -170 -254 0
-117 -145 -172 -252 0
-117 -145 -182 -222 0
-117 -145 -183 -218 0
-117 -145 -185 -216 0
-117 -145 -188 -213 0
-117 -145 -190 -211 0
-117 -146 -167 -281 0
-117 -146 -170 -250 0
-117 -146 -172 -245 0
-117 -146 -174 -243 0
-117 -146 -177 -229 0
-117 -146 -179 -224 0
-117 -146 -194 -209 0
-117 -146 -196 -207 0
-117 -146 -201 -205 0
-117 -151 -167 -268 0
-117 -151 -169 -243 0
-117 -151 -170 -239 0
-117 -151 -172 -237 0
-117 -151 -176 -222 0
-117 -151 -177 -218 0
-117 -151 -188 -207 0
-117 -151 -190 -205 0
-117 -156 -167 -258 0
-117 -156 -168 -243 0
-117 -156 -170 -234 0
-117 -156 -175 -222 0
-117 -156 -177 -213 0
-117 -156 -183 -207 0
-117 -158 -167 -256 0
-117 -158 -168 -241 0
-117 -158 -169 -236 0
-117 -158 -175 -220 0
-117 -158 -176 -215 0
-117 -158 -182 -209 0
-118 -126 -207 -255 0
-118 -126 -208 -254 0
-118 -126 -213 -240 0
-118 -126 -214 -239 0
-118 -126 -218 -235 0
-118 -126 -219 -234 0
-118 -128 -205 -255 0
-118 -128 -208 -252 0
-118 -128 -211 -240 0
-118 -128 -214 -237 0
-118 -128 -216 -235 0
-118 -128 -219 -232 0
-118 -134 -175 -274 0
-118 -134 -176 -264 0
-118 -134 -182 -249 0
-118 -134 -185 -240 0
-118 -136 -175 -269 0
-118 -136 -176 -259 0
-118 -136 -177 -255 0
-118 -136 -180 -252 0
-118 -136 -182 -244 0
-118 -139 -169 -280 0
-118 -139 -170 -274 0
-118 -139 -172 -269 0
-118 -139 -173 -268 0
-118 -139 -188 -228 0
-118 -139 -190 -223 0
-118 -139 -194 -219 0
-118 -139 -195 -218 0
-118 -139 -200 -216 0
-118 -140 -168 -280 0
-118 -140 -170 -264 0
-118 -140 -172 -259 0
-118 -140 -173 -258 0
-118 -140 -183 -228 0
-118 -140 -185 -223 0
-118 -140 -186 -222 0
-118 -140 -194 -214 0
-118 -140 -195 -213 0
-118 -140 -200 -211 0
-118 -144 -168 -268 0
-118 -144 -169 -258 0
-118 -144 -170 -254 0
-118 -144 -172 -252 0
-118 -144 -182 -222 0
-118 -144 -183 -218 0
-118 -144 -185 -216 0
-118 -144 -188 -213 0
-118 -146 -167 -280 0
-118 -146 -170 -249 0
-118 -146 -172 -244 0
-118 -146 -173 -243 0
-118 -146 -177 -228 0
-118 -146 -179 -223 0
-118 -146 -194 -208 0
-118 -146 -195 -207 0
-118 -146 -200 -205 0
-118 -150 -167 -268 0
-118 -150 -169 -243 0
-118 -150 -170 -239 0
-118 -150 -176 -222 0
-118 -150 -177 -218 0
-118 -150 -179 -216 0
-118 -150 -188 -207 0
-118 -155 -167 -258 0
-118 -155 -168 -243 0
-118 -155 -170 -234 0
-118 -155 -175 -222 0
-118 -155 -177 -213 0
-118 -155 -179 -211 0
-118 -155 -183 -207 0
-118 -155 -185 -205 0
-118 -158 -167 -255 0
-118 -158 -168 -240 0
-118 -158 -169 -235 0
-118 -158 -175 -219 0
-118 -158 -176 -214 0
-118 -158 -182 -208 0
-119 -126 -209 -253 0
-119 -126 -212 -241 0
-119 -126 -215 -238 0
-119 -126 -220 -233 0
-119 -127 -205 -256 0
-119 -127 -209 -252 0
-119 -127 -211 -241 0
-119 -127 -215 -237 0
-119 -127 -216 -236 0
-119 -127 -220 -232 0
-119 -134 -175 -273 0
-119 -134 -176 -263 0
-119 -134 -178 -256 0
-119 -134 -181 -253 0
-119 -134 -182 -248 0
-119 -134 -184 -241 0
-119 -135 -175 -270 0
-119 -135 -176 -260 0
-119 -135 -177 -256 0
-119 -135 -182 -245 0
-119 -135 -183 -241 0
-119 -135 -187 -237 0
-119 -135 -188 -236 0
-119 -135 -192 -232 0
-119 -139 -169 -279 0
-119 -139 -170 -273 0
-119 -139 -171 -270 0
-119 -139 -188 -227 0
-119 -139 -189 -224 0
-119 -139 -192 -221 0
-119 -139 -193 -220 0
-119 -139 -196 -217 0
-119 -139 -199 -216 0
-119 -140 -168 -279 0
-119 -140 -170 -263 0
-119 -140 -171 -260 0
-119 -140 -183 -227 0
-119 -140 -184 -224 0
-119 -140 -187 -221 0
-119 -140 -193 -215 0
-119 -140 -196 -212 0
-119 -140 -199 -211 0
-119 -145 -168 -267 0
-119 -145 -169 -257 0
-119 -145 -170 -253 0
-119 -145 -171 -252 0
-119 -145 -182 -221 0
-119 -145 -183 -217 0
-119 -145 -184 -216 0
-119 -145 -188 -212 0
-119 -145 -189 -211 0
-119 -146 -167 -279 0
-119 -146 -170 -248 0
-119 -146 -171 -245 0
-119 -146 -174 -242 0
-119 -146 -177 -227 0
-119 -146 -178 -224 0
-119 -146 -181 -221 0
-119 -146 -193 -209 0
-119 -146 -196 -206 0
-119 -146 -199 -205 0
-119 -151 -167 -267 0
-119 -151 -169 -242 0
-119 -151 -170 -238 0
-119 -151 -171 -237 0
-119 -151 -176 -221 0
-119 -151 -177 -217 0
-119 -151 -178 -216 0
-119 -156 -167 -257 0
-119 -156 -168 -242 0
-119 -156 -170 -233 0
-119 -156 -171 -232 0
-119 -156 -175 -221 0
-119 -156 -177 -212 0
-119 -156 -178 -211 0
-119 -156 -183 -206 0
-119 -156 -184 -205 0
-119 -157 -167 -256 0
-119 -157 -168 -241 0
-119 -157 -169 -236 0
-119 -157 -175 -220 0
-119 -157 -176 -215 0
-119 -157 -182 -209 0
-120 -126 -206 -255 0
-120 -126 -208 -253 0
-120 -126 -214 -238 0
-120 -126 -217 -235 0
-120 -126 -219 -233 0
-120 -127 -205 -255 0
-120 -127 -208 -252 0
-120 -127 -211 -240 0
-120 -127 -214 -237 0
-120 -127 -216 -235 0
-120 -127 -219 -232 0
-120 -134 -175 -272 0
-120 -134 -176 -262 0
-120 -134 -182 -247 0
-120 -134 -184 -240 0
-120 -134 -186 -238 0
-120 -134 -189 -235 0
-120 -135 -175 -269 0
-120 -135 -176 -259 0
-120 -135 -177 -255 0
-120 -135 -180 -252 0
-120 -135 -182 -244 0
-120 -135 -183 -240 0
-120 -135 -188 -235 0
-120 -135 -191 -232 0
-120 -139 -169 -278 0
-120 -139 -170 -272 0
-120 -139 -171 -269 0
-120 -139 -173 -267 0
-120 -139 -188 -226 0
-120 -139 -189 -223 0
-120 -139 -193 -219 0
-120 -139 -195 -217 0
-120 -139 -198 -216 0
-120 -140 -168 -278 0
-120 -140 -170 -262 0
-120 -140 -171 -259 0
-120 -140 -173 -257 0
-120 -140 -183 -226 0
-120 -140 -184 -223 0
-120 -140 -193 -214 0
-120 -140 -195 -212 0
-120 -140 -198 -211 0
-120 -144 -168 -267 0
-120 -144 -169 -257 0
-120 -144 -170 -253 0
-120 -144 -171 -252 0
-120 -144 -182 -221 0
-120 -144 -183 -217 0
-120 -144 -184 -216 0
-120 -144 -188 -212 0
-120 -146 -167 -278 0
-120 -146 -170 -247 0
-120 -146 -171 -244 0
-120 -146 -173 -242 0
-120 -146 -177 -226 0
-120 -146 -178 -223 0
-120 -146 -180 -221 0
-120 -146 -193 -208 0
-120 -146 -195 -206 0
-120 -146 -198 -205 0
-120 -150 -167 -267 0
-120 -150 -169 -242 0
-120 -150 -170 -238 0
-120 -150 -171 -237 0
-120 -150 -176 -221 0
-120 -150 -188 -206 0
-120 -150 -189 -205 0
-120 -155 -167 -257 0
-120 -155 -168 -242 0
-120 -155 -170 -233 0
-120 -155 -171 -232 0
-120 -155 -175 -221 0
-120 -155 -177 -212 0
-120 -155 -183 -206 0
-120 -155 -184 -205 0
-120 -157 -167 -255 0
-120 -157 -168 -240 0
-120 -157 -169 -235 0
-120 -157 -175 -219 0
-120 -157 -176 -214 0
-120 -157 -182 -208 0
-121 -126 -206 -254 0
-121 -126 -207 -253 0
-121 -126 -212 -239 0
-121 -126 -213 -238 0
-121 -126 -217 -234 0
-121 -126 -218 -233 0
-121 -127 -205 -254 0
-121 -127 -207 -252 0
-121 -127 -211 -239 0
-121 -127 -213 -237 0
-121 -127 -216 -234 0
-121 -127 -218 -232 0
-121 -128 -205 -253 0
-121 -128 -206 -252 0
-121 -128 -211 -238 0
-121 -128 -212 -237 0
-121 -128 -216 -233 0
-121 -128 -217 -232 0
-121 -134 -175 -271 0
-121 -134 -176 -261 0
-121 -134 -178 -254 0
-121 -134 -179 -253 0
-121 -134 -182 -246 0
-121 -134 -184 -239 0
-121 -134 -185 -238 0
-121 -134 -189 -234 0
-121 -134 -190 -233 0
-121 -135 -175 -268 0
-121 -135 -176 -258 0
-121 -135 -177 -254 0
-121 -135 -179 -252 0
-121 -135 -182 -243 0
-121 -135 -183 -239 0
-121 -135 -185 -237 0
-121 -135 -188 -234 0
-121 -135 -190 -232 0
-121 -136 -175 -267 0
-121 -136 -176 -257 0
-121 -136 -177 -253 0
-121 -136 -178 -252 0
-121 -136 -182 -242 0
-121 -136 -183 -238 0
-121 -136 -184 -237 0
-121 -136 -188 -233 0
-121 -136 -189 -232 0
-121 -139 -170 -271 0
-121 -139 -171 -268 0
-121 -139 -172 -267 0
-121 -139 -188 -225 0
-121 -139 -189 -222 0
-121 -139 -190 -221 0
-121 -139 -197 -216 0
-121 -140 -170 -261 0
-121 -140 -171 -258 0
-121 -140 -172 -257 0
-121 -140 -183 -225 0
-121 -140 -184 -222 0
-121 -140 -185 -221 0
-121 -140 -193 -213 0
-121 -140 -194 -212 0
-121 -140 -197 -211 0
-121 -146 -170 -246 0
-121 -146 -171 -243 0
-121 -146 -172 -242 0
-121 -146 -177 -225 0
-121 -146 -178 -222 0
-121 -146 -179 -221 0
-121 -146 -197 -205 0
-121 -157 -167 -254 0
-121 -157 -168 -239 0
-121 -157 -169 -234 0
-121 -157 -175 -218 0
-121 -157 -176 -213 0
-121 -157 -182 -207 0
-121 -158 -167 -253 0
-121 -158 -168 -238 0
-121 -158 -169 -233 0
-121 -158 -175 -217 0
-121 -158 -176 -212 0
-121 -158 -182 -206 0
-121 -161 -167 -252 0
-121 -161 -168 -237 0
-121 -161 -169 -232 0
-121 -161 -175 -216 0
-121 -161 -176 -211 0
-121 -161 -182 -205 0
1 0
2 0
3 0
4 0
5 0
6 0
-7 0
-8 0
-9 0
-10 0
-11 0
12 0
13 0
-14 0
-15 0
-16 0
17 0
18 0
19 0
-20 0
-21 0
-23 0
-24 0
-25 0
