p cnf 286 1461
-1 -2 -3 -12 -13 -22 0
-2 -4 -5 -23 -24 -39 0
-2 -4 -6 -23 -25 -40 0
-2 -5 -6 -24 -25 -46 0
-3 -4 -5 -31 -32 -39 0
-3 -4 -6 -31 -33 -40 0
-3 -5 -6 -32 -33 -46 0
-4 -5 -6 -39 -40 -46 0
7 8 9 57 58 61 0
7 8 10 57 59 62 0
7 8 11 57 60 63 0
7 9 10 58 59 64 0
7 9 11 58 60 65 0
7 10 11 59 60 66 0
8 9 10 61 62 64 0
8 9 11 61 63 65 0
8 10 11 62 63 66 0
9 10 11 64 65 66 0
-12 -17 -18 -26 -27 -57 0
-12 -17 -19 -26 -28 -58 0
-12 -17 -20 -26 -29 -59 0
-12 -17 -21 -26 -30 -60 0
-12 -18 -19 -27 -28 -61 0
-12 -18 -20 -27 -29 -62 0
-12 -18 -21 -27 -30 -63 0
-12 -19 -20 -28 -29 -64 0
-12 -19 -21 -28 -30 -65 0
-12 -20 -21 -29 -30 -66 0
-13 -17 -18 -34 -35 -57 0
-13 -17 -19 -34 -36 -58 0
-13 -17 -20 -34 -37 -59 0
-13 -17 -21 -34 -38 -60 0
-13 -18 -19 -35 -36 -61 0
-13 -18 -20 -35 -37 -62 0
-13 -18 -21 -35 -38 -63 0
-13 -19 -20 -36 -37 -64 0
-13 -19 -21 -36 -38 -65 0
-13 -20 -21 -37 -38 -66 0
14 15 16 39 40 46 0
-17 -18 -19 -57 -58 -61 0
-17 -18 -20 -57 -59 -62 0
-17 -18 -21 -57 -60 -63 0
-17 -19 -20 -58 -59 -64 0
-17 -19 -21 -58 -60 -65 0
-17 -20 -21 -59 -60 -66 0
-18 -19 -20 -61 -62 -64 0
-18 -19 -21 -61 -63 -65 0
-18 -20 -21 -62 -63 -66 0
-19 -20 -21 -64 -65 -66 0
22 23 24 31 32 39 0
22 23 25 31 33 40 0
22 23 30 31 38 45 0
22 24 26 32 34 47 0
22 24 27 32 35 48 0
22 24 28 32 36 49 0
22 24 29 32 37 50 0
22 24 30 32 38 51 0
22 25 26 33 34 52 0
22 25 27 33 35 53 0
22 25 28 33 36 54 0
22 25 29 33 37 55 0
22 25 30 33 38 56 0
22 26 27 34 35 57 0
22 26 28 34 36 58 0
22 26 29 34 37 59 0
22 26 30 34 38 60 0
22 27 28 35 36 61 0
22 27 29 35 37 62 0
22 27 30 35 38 63 0
22 28 29 36 37 64 0
22 28 30 36 38 65 0
22 29 30 37 38 66 0
23 25 26 40 41 52 0
23 25 28 40 43 54 0
23 26 27 41 42 57 0
23 26 28 41 43 58 0
23 26 29 41 44 59 0
23 26 30 41 45 60 0
23 27 30 42 45 63 0
23 29 30 44 45 66 0
24 26 30 47 51 60 0
24 27 29 48 50 62 0
24 27 30 48 51 63 0
24 28 30 49 51 65 0
25 26 30 52 56 60 0
25 27 29 53 55 62 0
25 27 30 53 56 63 0
25 29 30 55 56 66 0
26 27 29 57 59 62 0
31 33 34 40 41 52 0
31 33 36 40 43 54 0
31 33 37 40 44 55 0
-31 -33 -38 -40 -45 -56 0
31 34 35 41 42 57 0
31 34 36 41 43 58 0
31 34 37 41 44 59 0
31 34 38 41 45 60 0
31 35 36 42 43 61 0
31 35 37 42 44 62 0
31 35 38 42 45 63 0
31 36 38 43 45 65 0
31 37 38 44 45 66 0
33 34 38 52 56 60 0
33 36 37 54 55 64 0
34 35 36 57 58 61 0
34 36 37 58 59 64 0
34 36 38 58 60 65 0
34 37 38 59 60 66 0
35 36 38 61 63 65 0
-39 -41 -42 -47 -48 -57 0
39 41 42 47 48 57 0
-39 -41 -43 -47 -49 -58 0
39 41 43 47 49 58 0
-39 -41 -44 -47 -50 -59 0
-39 -41 -45 -47 -51 -60 0
39 41 45 47 51 60 0
-39 -42 -43 -48 -49 -61 0
39 42 43 48 49 61 0
-39 -42 -44 -48 -50 -62 0
-39 -42 -45 -48 -51 -63 0
39 42 45 48 51 63 0
-39 -43 -44 -49 -50 -64 0
-39 -43 -45 -49 -51 -65 0
39 43 45 49 51 65 0
-39 -44 -45 -50 -51 -66 0
39 44 45 50 51 66 0
-40 -41 -42 -52 -53 -57 0
40 41 42 52 53 57 0
-40 -41 -43 -52 -54 -58 0
40 41 43 52 54 58 0
-40 -41 -44 -52 -55 -59 0
40 41 44 52 55 59 0
-40 -41 -45 -52 -56 -60 0
40 41 45 52 56 60 0
40 42 43 53 54 61 0
-40 -42 -45 -53 -56 -63 0
-40 -43 -44 -54 -55 -64 0
40 43 44 54 55 64 0
-40 -43 -45 -54 -56 -65 0
40 43 45 54 56 65 0
-40 -44 -45 -55 -56 -66 0
40 44 45 55 56 66 0
-46 -48 -49 -53 -54 -61 0
-46 -49 -51 -54 -56 -65 0
-46 -50 -51 -55 -56 -66 0
-47 -50 -51 -59 -60 -66 0
67 -1 -2 -12 0
68 -1 -3 -13 0
78 -2 -4 -23 0
79 -2 -5 -24 0
80 -2 -6 -25 0
86 -3 -4 -31 0
87 -3 -5 -32 0
88 -3 -6 -33 0
94 -4 -5 -39 0
95 -4 -6 -40 0
101 -5 -6 -46 0
112 7 8 57 0
113 7 9 58 0
114 7 10 59 0
115 7 11 60 0
116 8 9 61 0
117 8 10 62 0
118 8 11 63 0
119 9 10 64 0
120 9 11 65 0
121 10 11 66 0
126 -12 -17 -26 0
127 -12 -18 -27 0
128 -12 -19 -28 0
129 -12 -20 -29 0
130 -12 -21 -30 0
134 -13 -17 -34 0
135 -13 -18 -35 0
136 -13 -19 -36 0
137 -13 -20 -37 0
138 -13 -21 -38 0
139 14 15 39 0
140 14 16 40 0
146 15 16 46 0
157 -17 -18 -57 0
158 -17 -19 -58 0
159 -17 -20 -59 0
160 -17 -21 -60 0
161 -18 -19 -61 0
162 -18 -20 -62 0
163 -18 -21 -63 0
164 -19 -20 -64 0
165 -19 -21 -65 0
166 -20 -21 -66 0
167 22 23 31 0
168 22 24 32 0
169 22 25 33 0
170 22 26 34 0
171 22 27 35 0
172 22 28 36 0
173 22 29 37 0
174 22 30 38 0
175 23 24 39 0
176 23 25 40 0
177 -23 -26 -41 0
177 23 26 41 0
178 -23 -27 -42 0
178 23 27 42 0
179 -23 -28 -43 0
179 23 28 43 0
180 -23 -29 -44 0
180 23 29 44 0
181 -23 -30 -45 0
181 23 30 45 0
182 24 25 46 0
183 -24 -26 -47 0
183 24 26 47 0
184 -24 -27 -48 0
184 24 27 48 0
185 -24 -28 -49 0
185 24 28 49 0
186 -24 -29 -50 0
186 24 29 50 0
187 -24 -30 -51 0
187 24 30 51 0
188 -25 -26 -52 0
188 25 26 52 0
189 -25 -27 -53 0
189 25 27 53 0
190 -25 -28 -54 0
190 25 28 54 0
191 -25 -29 -55 0
191 25 29 55 0
192 -25 -30 -56 0
192 25 30 56 0
193 26 27 57 0
194 26 28 58 0
195 26 29 59 0
196 26 30 60 0
197 -27 -28 -61 0
197 27 28 61 0
198 -27 -29 -62 0
198 27 29 62 0
199 27 30 63 0
200 -28 -29 -64 0
200 28 29 64 0
201 28 30 65 0
202 29 30 66 0
203 -31 -32 -39 0
203 31 32 39 0
204 31 33 40 0
205 -31 -34 -41 0
205 31 34 41 0
206 -31 -35 -42 0
206 31 35 42 0
207 -31 -36 -43 0
207 31 36 43 0
208 -31 -37 -44 0
208 31 37 44 0
209 -31 -38 -45 0
209 31 38 45 0
210 -32 -33 -46 0
210 32 33 46 0
211 -32 -34 -47 0
211 32 34 47 0
212 -32 -35 -48 0
212 32 35 48 0
213 -32 -36 -49 0
213 32 36 49 0
214 -32 -37 -50 0
214 32 37 50 0
215 -32 -38 -51 0
215 32 38 51 0
216 -33 -34 -52 0
216 33 34 52 0
217 -33 -35 -53 0
217 33 35 53 0
218 -33 -36 -54 0
218 33 36 54 0
219 -33 -37 -55 0
219 33 37 55 0
220 -33 -38 -56 0
220 33 38 56 0
221 34 35 57 0
222 34 36 58 0
223 -34 -37 -59 0
223 34 37 59 0
224 34 38 60 0
225 -35 -36 -61 0
225 35 36 61 0
226 -35 -37 -62 0
226 35 37 62 0
227 35 38 63 0
228 -36 -37 -64 0
228 36 37 64 0
229 -36 -38 -65 0
229 36 38 65 0
230 -37 -38 -66 0
230 37 38 66 0
232 -39 -41 -47 0
232 39 41 47 0
233 -39 -42 -48 0
233 39 42 48 0
234 -39 -43 -49 0
234 39 43 49 0
235 -39 -44 -50 0
235 39 44 50 0
236 -39 -45 -51 0
236 39 45 51 0
237 -40 -41 -52 0
237 40 41 52 0
238 40 42 53 0
239 -40 -43 -54 0
239 40 43 54 0
240 -40 -44 -55 0
240 40 44 55 0
241 -40 -45 -56 0
241 40 45 56 0
242 -41 -42 -57 0
242 41 42 57 0
243 -41 -43 -58 0
243 41 43 58 0
244 -41 -44 -59 0
244 41 44 59 0
245 -41 -45 -60 0
245 41 45 60 0
246 -42 -43 -61 0
246 42 43 61 0
247 -42 -44 -62 0
247 42 44 62 0
248 -42 -45 -63 0
248 42 45 63 0
249 -43 -44 -64 0
249 43 44 64 0
250 -43 -45 -65 0
250 43 45 65 0
251 -44 -45 -66 0
251 44 45 66 0
252 -46 -47 -52 0
252 46 47 52 0
253 -46 -48 -53 0
254 -46 -49 -54 0
255 -46 -50 -55 0
256 -46 -51 -56 0
256 46 51 56 0
257 -47 -48 -57 0
257 47 48 57 0
258 -47 -49 -58 0
258 47 49 58 0
259 -47 -50 -59 0
259 47 50 59 0
260 -47 -51 -60 0
260 47 51 60 0
261 -48 -49 -61 0
261 48 49 61 0
262 -48 -50 -62 0
262 48 50 62 0
263 -48 -51 -63 0
263 48 51 63 0
264 -49 -50 -64 0
264 49 50 64 0
265 -49 -51 -65 0
265 49 51 65 0
266 -50 -51 -66 0
266 50 51 66 0
267 -52 -53 -57 0
267 52 53 57 0
268 -52 -54 -58 0
268 52 54 58 0
269 -52 -55 -59 0
269 52 55 59 0
270 -52 -56 -60 0
270 52 56 60 0
271 -53 -54 -61 0
271 53 54 61 0
272 -53 -55 -62 0
272 53 55 62 0
273 -53 -56 -63 0
273 53 56 63 0
274 -54 -55 -64 0
274 54 55 64 0
275 -54 -56 -65 0
275 54 56 65 0
276 -55 -56 -66 0
276 55 56 66 0
277 -57 -58 -61 0
277 57 58 61 0
282 -59 -60 -66 0
283 -61 -62 -64 0
283 61 62 64 0
284 -61 -63 -65 0
284 61 63 65 0
-67 -203 -270 -283 0
-67 -203 -276 -277 0
-67 -204 -260 -283 0
-67 -204 -266 -277 0
-67 -205 -256 -283 0
-67 -207 -260 -272 0
-67 -207 -266 -267 0
-67 -208 -256 -277 0
-67 -209 -252 -283 0
-67 -210 -245 -283 0
-67 -210 -251 -277 0
-67 -211 -241 -283 0
-67 -214 -241 -277 0
-67 -215 -237 -283 0
-67 -215 -240 -277 0
-67 -216 -236 -283 0
-67 -218 -244 -263 0
-67 -219 -236 -277 0
-67 -219 -243 -263 0
-67 -220 -232 -283 0
-67 -220 -235 -277 0
-67 -221 -235 -275 0
-67 -221 -236 -274 0
-67 -221 -249 -256 0
-67 -221 -251 -254 0
-67 -222 -238 -266 0
-67 -222 -240 -263 0
-67 -222 -241 -262 0
-67 -222 -247 -256 0
-67 -222 -248 -255 0
-67 -222 -251 -253 0
-67 -223 -246 -256 0
-67 -223 -248 -254 0
-67 -223 -250 -253 0
-67 -224 -246 -255 0
-67 -224 -247 -254 0
-67 -224 -249 -253 0
-67 -225 -232 -276 0
-67 -225 -236 -269 0
-67 -225 -237 -266 0
-67 -225 -241 -259 0
-67 -225 -244 -256 0
-67 -225 -251 -252 0
-67 -226 -236 -268 0
-67 -226 -241 -258 0
-67 -226 -243 -256 0
-67 -226 -245 -254 0
-67 -226 -250 -252 0
-67 -227 -232 -274 0
-67 -227 -243 -255 0
-67 -227 -244 -254 0
-67 -227 -249 -252 0
-67 -228 -236 -267 0
-67 -228 -241 -257 0
-67 -228 -242 -256 0
-67 -228 -245 -253 0
-67 -228 -248 -252 0
-67 -229 -242 -255 0
-67 -229 -244 -253 0
-67 -229 -247 -252 0
-67 -230 -232 -271 0
-67 -230 -242 -254 0
-67 -230 -243 -253 0
-67 -230 -246 -252 0
-68 -175 -270 -283 0
-68 -175 -276 -277 0
-68 -176 -260 -283 0
-68 -176 -266 -277 0
-68 -177 -256 -283 0
-68 -180 -256 -277 0
-68 -181 -252 -283 0
-68 -182 -245 -283 0
-68 -183 -241 -283 0
-68 -186 -241 -277 0
-68 -187 -237 -283 0
-68 -187 -240 -277 0
-68 -188 -236 -283 0
-68 -190 -248 -259 0
-68 -191 -236 -277 0
-68 -192 -232 -283 0
-68 -192 -235 -277 0
-68 -192 -243 -262 0
-68 -193 -236 -274 0
-68 -193 -239 -266 0
-68 -193 -241 -264 0
-68 -193 -249 -256 0
-68 -193 -250 -255 0
-68 -193 -251 -254 0
-68 -194 -238 -266 0
-68 -194 -241 -262 0
-68 -194 -247 -256 0
-68 -194 -248 -255 0
-68 -194 -251 -253 0
-68 -195 -236 -271 0
-68 -195 -241 -261 0
-68 -195 -246 -256 0
-68 -195 -248 -254 0
-68 -195 -250 -253 0
-68 -196 -247 -254 0
-68 -196 -249 -253 0
-68 -197 -232 -276 0
-68 -197 -237 -266 0
-68 -197 -240 -260 0
-68 -197 -244 -256 0
-68 -197 -245 -255 0
-68 -197 -251 -252 0
-68 -198 -243 -256 0
-68 -198 -245 -254 0
-68 -198 -250 -252 0
-68 -199 -234 -269 0
-68 -199 -243 -255 0
-68 -199 -244 -254 0
-68 -199 -249 -252 0
-68 -200 -242 -256 0
-68 -200 -245 -253 0
-68 -200 -248 -252 0
-68 -201 -242 -255 0
-68 -201 -244 -253 0
-68 -201 -247 -252 0
-68 -202 -234 -267 0
-68 -202 -243 -253 0
-68 -202 -246 -252 0
-78 -134 -256 -283 0
-78 -134 -266 -271 0
-78 -136 -260 -272 0
-78 -137 -252 -284 0
-78 -137 -256 -277 0
-78 -138 -252 -283 0
-78 -146 -224 -283 0
-78 -146 -230 -277 0
-78 -157 -214 -275 0
-78 -157 -219 -265 0
-78 -157 -228 -256 0
-78 -157 -229 -255 0
-78 -157 -230 -254 0
-78 -158 -214 -273 0
-78 -158 -217 -266 0
-78 -158 -226 -256 0
-78 -158 -227 -255 0
-78 -158 -230 -253 0
-78 -159 -218 -263 0
-78 -159 -225 -256 0
-78 -159 -227 -254 0
-78 -160 -210 -283 0
-78 -160 -218 -262 0
-78 -160 -225 -255 0
-78 -160 -226 -254 0
-78 -160 -228 -253 0
-78 -161 -211 -276 0
-78 -161 -216 -266 0
-78 -161 -223 -256 0
-78 -161 -224 -255 0
-78 -161 -230 -252 0
-78 -162 -216 -265 0
-78 -162 -222 -256 0
-78 -162 -224 -254 0
-78 -162 -229 -252 0
-78 -163 -216 -264 0
-78 -163 -219 -258 0
-78 -163 -222 -255 0
-78 -163 -223 -254 0
-78 -163 -228 -252 0
-78 -164 -216 -263 0
-78 -164 -217 -260 0
-78 -164 -221 -256 0
-78 -164 -224 -253 0
-78 -164 -227 -252 0
-78 -165 -216 -262 0
-78 -165 -217 -259 0
-78 -165 -221 -255 0
-78 -165 -223 -253 0
-78 -165 -226 -252 0
-78 -166 -210 -277 0
-78 -166 -221 -254 0
-78 -166 -222 -253 0
-78 -166 -225 -252 0
-79 -134 -241 -283 0
-79 -135 -250 -269 0
-79 -136 -245 -272 0
-79 -136 -251 -267 0
-79 -137 -241 -277 0
-79 -138 -246 -269 0
-79 -140 -224 -283 0
-79 -140 -230 -277 0
-79 -157 -208 -275 0
-79 -157 -218 -251 0
-79 -158 -206 -276 0
-79 -158 -208 -273 0
-79 -158 -217 -251 0
-79 -159 -229 -238 0
-79 -160 -204 -283 0
-79 -160 -218 -247 0
-79 -160 -219 -246 0
-79 -161 -205 -276 0
-79 -161 -208 -270 0
-79 -161 -216 -251 0
-79 -161 -219 -245 0
-79 -161 -223 -241 0
-79 -162 -218 -245 0
-79 -163 -216 -249 0
-79 -163 -223 -239 0
-79 -164 -206 -270 0
-79 -164 -217 -245 0
-79 -164 -221 -241 0
-79 -165 -221 -240 0
-79 -166 -207 -267 0
-79 -166 -218 -242 0
-80 -134 -236 -283 0
-80 -135 -243 -266 0
-80 -136 -244 -263 0
-80 -137 -236 -277 0
-80 -137 -243 -263 0
-80 -138 -243 -262 0
-80 -138 -244 -261 0
-80 -138 -246 -259 0
-80 -138 -247 -258 0
-80 -138 -249 -257 0
-80 -139 -224 -283 0
-80 -139 -230 -277 0
-80 -157 -207 -266 0
-80 -157 -209 -264 0
-80 -157 -214 -250 0
-80 -157 -215 -249 0
-80 -157 -228 -236 0
-80 -158 -209 -262 0
-80 -158 -215 -247 0
-80 -158 -226 -236 0
-80 -159 -206 -265 0
-80 -159 -209 -261 0
-80 -159 -212 -250 0
-80 -159 -215 -246 0
-80 -159 -225 -236 0
-80 -160 -206 -264 0
-80 -161 -205 -266 0
-80 -161 -209 -259 0
-80 -161 -211 -251 0
-80 -161 -215 -244 0
-80 -162 -207 -260 0
-80 -162 -209 -258 0
-80 -162 -215 -243 0
-80 -162 -222 -236 0
-80 -163 -205 -264 0
-80 -163 -213 -244 0
-80 -163 -214 -243 0
-80 -163 -228 -232 0
-80 -164 -205 -263 0
-80 -164 -206 -260 0
-80 -164 -209 -257 0
-80 -164 -212 -245 0
-80 -164 -221 -236 0
-80 -165 -212 -244 0
-80 -165 -226 -232 0
-80 -166 -206 -258 0
-80 -166 -207 -257 0
-80 -166 -212 -243 0
-80 -166 -213 -242 0
-80 -166 -222 -233 0
-86 -126 -256 -283 0
-86 -128 -263 -269 0
-86 -129 -252 -284 0
-86 -129 -256 -277 0
-86 -129 -265 -267 0
-86 -130 -257 -274 0
-86 -130 -259 -271 0
-86 -146 -196 -283 0
-86 -146 -202 -277 0
-86 -157 -186 -275 0
-86 -157 -191 -265 0
-86 -157 -200 -256 0
-86 -157 -201 -255 0
-86 -157 -202 -254 0
-86 -158 -184 -276 0
-86 -158 -187 -272 0
-86 -158 -198 -256 0
-86 -158 -199 -255 0
-86 -158 -202 -253 0
-86 -159 -197 -256 0
-86 -159 -199 -254 0
-86 -159 -201 -253 0
-86 -160 -197 -255 0
-86 -160 -198 -254 0
-86 -160 -200 -253 0
-86 -161 -183 -276 0
-86 -161 -187 -269 0
-86 -161 -188 -266 0
-86 -161 -191 -260 0
-86 -161 -192 -259 0
-86 -161 -195 -256 0
-86 -161 -196 -255 0
-86 -161 -202 -252 0
-86 -162 -190 -260 0
-86 -162 -194 -256 0
-86 -162 -196 -254 0
-86 -162 -201 -252 0
-86 -163 -194 -255 0
-86 -163 -195 -254 0
-86 -163 -200 -252 0
-86 -164 -183 -273 0
-86 -164 -187 -267 0
-86 -164 -193 -256 0
-86 -164 -196 -253 0
-86 -164 -199 -252 0
-86 -165 -193 -255 0
-86 -165 -195 -253 0
-86 -165 -198 -252 0
-86 -166 -193 -254 0
-86 -166 -194 -253 0
-86 -166 -197 -252 0
-87 -126 -241 -283 0
-87 -129 -241 -277 0
-87 -140 -196 -283 0
-87 -140 -202 -277 0
-87 -157 -181 -274 0
-87 -160 -176 -283 0
-87 -161 -177 -276 0
-87 -161 -188 -251 0
-87 -162 -190 -245 0
-87 -165 -198 -237 0
-87 -166 -176 -277 0
-87 -166 -189 -243 0
-88 -126 -236 -283 0
-88 -127 -245 -264 0
-88 -128 -244 -263 0
-88 -128 -248 -259 0
-88 -129 -236 -277 0
-88 -129 -248 -258 0
-88 -139 -196 -283 0
-88 -139 -202 -277 0
-88 -157 -179 -266 0
-88 -157 -180 -265 0
-88 -157 -185 -251 0
-88 -157 -186 -250 0
-88 -158 -186 -248 0
-88 -160 -175 -283 0
-88 -161 -177 -266 0
-88 -161 -180 -260 0
-88 -161 -181 -259 0
-88 -161 -183 -251 0
-88 -161 -195 -236 0
-88 -162 -179 -260 0
-88 -162 -181 -258 0
-88 -162 -185 -245 0
-88 -163 -177 -264 0
-88 -163 -180 -258 0
-88 -163 -185 -244 0
-88 -164 -178 -260 0
-88 -164 -181 -257 0
-88 -164 -183 -248 0
-88 -164 -184 -245 0
-88 -165 -195 -233 0
-88 -166 -177 -261 0
-88 -166 -193 -234 0
-94 -126 -220 -283 0
-94 -126 -225 -276 0
-94 -126 -228 -273 0
-94 -127 -222 -276 0
-94 -127 -223 -275 0
-94 -127 -224 -274 0
-94 -128 -221 -276 0
-94 -128 -224 -272 0
-94 -128 -227 -269 0
-94 -129 -220 -277 0
-94 -129 -224 -271 0
-94 -129 -225 -270 0
-94 -129 -227 -268 0
-94 -130 -222 -272 0
-94 -130 -223 -271 0
-94 -130 -226 -268 0
-94 -134 -192 -283 0
-94 -134 -197 -276 0
-94 -134 -199 -274 0
-94 -136 -195 -273 0
-94 -137 -192 -277 0
-94 -137 -194 -273 0
-94 -157 -172 -276 0
-94 -157 -173 -275 0
-94 -157 -174 -274 0
-94 -157 -192 -228 0
-94 -157 -200 -220 0
-94 -157 -201 -219 0
-94 -157 -202 -218 0
-94 -158 -171 -276 0
-94 -158 -173 -273 0
-94 -158 -189 -230 0
-94 -158 -192 -226 0
-94 -158 -198 -220 0
-94 -158 -202 -217 0
-94 -159 -172 -273 0
-94 -159 -174 -271 0
-94 -159 -192 -225 0
-94 -160 -169 -283 0
-94 -160 -171 -274 0
-94 -160 -173 -271 0
-94 -160 -189 -228 0
-94 -160 -190 -226 0
-94 -160 -198 -218 0
-94 -161 -170 -276 0
-94 -161 -173 -270 0
-94 -161 -174 -269 0
-94 -161 -191 -224 0
-94 -161 -192 -223 0
-94 -161 -195 -220 0
-94 -162 -170 -275 0
-94 -162 -172 -270 0
-94 -162 -192 -222 0
-94 -162 -194 -220 0
-94 -162 -196 -218 0
-94 -163 -170 -274 0
-94 -163 -172 -269 0
-94 -163 -173 -268 0
-94 -163 -190 -223 0
-94 -163 -194 -219 0
-94 -163 -195 -218 0
-94 -164 -170 -273 0
-94 -164 -171 -270 0
-94 -164 -192 -221 0
-94 -164 -193 -220 0
-94 -164 -196 -217 0
-94 -165 -170 -272 0
-94 -165 -171 -269 0
-94 -165 -189 -223 0
-94 -165 -193 -219 0
-94 -165 -195 -217 0
-94 -166 -169 -277 0
-94 -166 -170 -271 0
-94 -166 -188 -225 0
-94 -166 -189 -222 0
-94 -166 -190 -221 0
-94 -166 -193 -218 0
-94 -166 -194 -217 0
-95 -126 -215 -283 0
-95 -126 -225 -266 0
-95 -126 -226 -265 0
-95 -126 -227 -264 0
-95 -126 -228 -263 0
-95 -127 -223 -265 0
-95 -127 -224 -264 0
-95 -128 -221 -266 0
-95 -128 -223 -263 0
-95 -129 -221 -265 0
-95 -129 -222 -263 0
-95 -129 -224 -261 0
-95 -130 -221 -264 0
-95 -130 -222 -262 0
-95 -134 -187 -283 0
-95 -134 -197 -266 0
-95 -134 -198 -265 0
-95 -134 -201 -262 0
-95 -134 -202 -261 0
-95 -135 -194 -266 0
-95 -135 -195 -265 0
-95 -135 -196 -264 0
-95 -135 -200 -260 0
-95 -136 -193 -266 0
-95 -136 -196 -262 0
-95 -136 -198 -260 0
-95 -136 -202 -257 0
-95 -137 -187 -277 0
-95 -137 -193 -265 0
-95 -137 -196 -261 0
-95 -137 -197 -260 0
-95 -137 -201 -257 0
-95 -138 -200 -257 0
-95 -157 -172 -266 0
-95 -157 -173 -265 0
-95 -157 -185 -230 0
-95 -157 -200 -215 0
-95 -157 -202 -213 0
-95 -158 -171 -266 0
-95 -158 -173 -263 0
-95 -158 -184 -230 0
-95 -158 -186 -227 0
-95 -158 -198 -215 0
-95 -159 -171 -265 0
-95 -159 -172 -263 0
-95 -159 -174 -261 0
-95 -159 -184 -229 0
-95 -159 -185 -227 0
-95 -160 -168 -283 0
-95 -160 -186 -225 0
-95 -160 -197 -214 0
-95 -160 -198 -213 0
-95 -160 -200 -212 0
-95 -161 -173 -260 0
-95 -161 -174 -259 0
-95 -161 -186 -224 0
-95 -161 -187 -223 0
-95 -161 -195 -215 0
-95 -161 -196 -214 0
-95 -162 -172 -260 0
-95 -162 -185 -224 0
-95 -162 -194 -215 0
-95 -162 -196 -213 0
-95 -163 -170 -264 0
-95 -163 -172 -259 0
-95 -163 -185 -223 0
-95 -163 -195 -213 0
-95 -164 -170 -263 0
-95 -164 -171 -260 0
-95 -164 -174 -257 0
-95 -164 -184 -224 0
-95 -164 -187 -221 0
-95 -165 -170 -262 0
-95 -165 -171 -259 0
-95 -165 -173 -257 0
-95 -165 -184 -223 0
-95 -165 -186 -221 0
-95 -165 -195 -212 0
-95 -166 -168 -277 0
-95 -166 -172 -257 0
-95 -166 -184 -222 0
-95 -166 -185 -221 0
-95 -166 -194 -212 0
-101 -126 -225 -251 0
-101 -126 -226 -250 0
-101 -126 -227 -249 0
-101 -126 -228 -248 0
-101 -126 -229 -247 0
-101 -126 -230 -246 0
-101 -127 -222 -251 0
-101 -127 -223 -250 0
-101 -127 -224 -249 0
-101 -127 -228 -245 0
-101 -127 -229 -244 0
-101 -127 -230 -243 0
-101 -128 -224 -247 0
-101 -128 -226 -245 0
-101 -128 -227 -244 0
-101 -128 -230 -242 0
-101 -129 -209 -277 0
-101 -129 -221 -250 0
-101 -129 -222 -248 0
-101 -129 -224 -246 0
-101 -129 -225 -245 0
-101 -129 -227 -243 0
-101 -129 -229 -242 0
-101 -130 -221 -249 0
-101 -130 -222 -247 0
-101 -130 -223 -246 0
-101 -130 -225 -244 0
-101 -130 -226 -243 0
-101 -130 -228 -242 0
-101 -134 -197 -251 0
-101 -134 -198 -250 0
-101 -134 -199 -249 0
-101 -134 -200 -248 0
-101 -134 -201 -247 0
-101 -134 -202 -246 0
-101 -135 -194 -251 0
-101 -135 -195 -250 0
-101 -135 -196 -249 0
-101 -135 -200 -245 0
-101 -135 -201 -244 0
-101 -135 -202 -243 0
-101 -136 -193 -251 0
-101 -136 -195 -248 0
-101 -136 -196 -247 0
-101 -136 -198 -245 0
-101 -136 -199 -244 0
-101 -136 -202 -242 0
-101 -137 -193 -250 0
-101 -137 -194 -248 0
-101 -137 -196 -246 0
-101 -137 -197 -245 0
-101 -137 -199 -243 0
-101 -137 -201 -242 0
-101 -138 -177 -283 0
-101 -138 -180 -277 0
-101 -138 -193 -249 0
-101 -138 -194 -247 0
-101 -138 -195 -246 0
-101 -138 -197 -244 0
-101 -138 -198 -243 0
-101 -138 -200 -242 0
-101 -157 -172 -251 0
-101 -157 -173 -250 0
-101 -157 -174 -249 0
-101 -157 -179 -230 0
-101 -157 -180 -229 0
-101 -157 -181 -228 0
-101 -157 -200 -209 0
-101 -157 -201 -208 0
-101 -157 -202 -207 0
-101 -158 -171 -251 0
-101 -158 -173 -248 0
-101 -158 -174 -247 0
-101 -158 -178 -230 0
-101 -158 -180 -227 0
-101 -158 -181 -226 0
-101 -158 -198 -209 0
-101 -158 -199 -208 0
-101 -158 -202 -206 0
-101 -159 -171 -250 0
-101 -159 -172 -248 0
-101 -159 -174 -246 0
-101 -159 -178 -229 0
-101 -159 -179 -227 0
-101 -159 -181 -225 0
-101 -159 -197 -209 0
-101 -159 -199 -207 0
-101 -159 -201 -206 0
-101 -160 -167 -283 0
-101 -160 -171 -249 0
-101 -160 -172 -247 0
-101 -160 -173 -246 0
-101 -160 -178 -228 0
-101 -160 -179 -226 0
-101 -160 -180 -225 0
-101 -160 -197 -208 0
-101 -160 -198 -207 0
-101 -160 -200 -206 0
-101 -161 -170 -251 0
-101 -161 -173 -245 0
-101 -161 -174 -244 0
-101 -161 -177 -230 0
-101 -161 -180 -224 0
-101 -161 -181 -223 0
-101 -161 -195 -209 0
-101 -161 -196 -208 0
-101 -161 -202 -205 0
-101 -162 -170 -250 0
-101 -162 -172 -245 0
-101 -162 -174 -243 0
-101 -162 -177 -229 0
-101 -162 -179 -224 0
-101 -162 -181 -222 0
-101 -162 -194 -209 0
-101 -162 -196 -207 0
-101 -162 -201 -205 0
-101 -163 -170 -249 0
-101 -163 -172 -244 0
-101 -163 -173 -243 0
-101 -163 -177 -228 0
-101 -163 -179 -223 0
-101 -163 -180 -222 0
-101 -163 -194 -208 0
-101 -163 -195 -207 0
-101 -163 -200 -205 0
-101 -164 -170 -248 0
-101 -164 -171 -245 0
-101 -164 -174 -242 0
-101 -164 -177 -227 0
-101 -164 -178 -224 0
-101 -164 -181 -221 0
-101 -164 -193 -209 0
-101 -164 -196 -206 0
-101 -164 -199 -205 0
-101 -165 -170 -247 0
-101 -165 -171 -244 0
-101 -165 -173 -242 0
-101 -165 -177 -226 0
-101 -165 -178 -223 0
-101 -165 -180 -221 0
-101 -165 -193 -208 0
-101 -165 -195 -206 0
-101 -165 -198 -205 0
-101 -166 -167 -277 0
-101 -166 -170 -246 0
-101 -166 -171 -243 0
-101 -166 -172 -242 0
-101 -166 -177 -225 0
-101 -166 -178 -222 0
-101 -166 -179 -221 0
-101 -166 -193 -207 0
-101 -166 -194 -206 0
-101 -166 -197 -205 0
-112 -136 -181 -255 0
-112 -136 -191 -236 0
-112 -137 -179 -256 0
-112 -137 -181 -254 0
-112 -139 -172 -276 0
-112 -139 -173 -275 0
-112 -139 -174 -274 0
-112 -139 -190 -230 0
-112 -139 -191 -229 0
-112 -139 -192 -228 0
-112 -139 -200 -220 0
-112 -139 -201 -219 0
-112 -139 -202 -218 0
-112 -140 -172 -266 0
-112 -140 -173 -265 0
-112 -140 -174 -264 0
-112 -140 -185 -230 0
-112 -140 -186 -229 0
-112 -140 -187 -228 0
-112 -140 -200 -215 0
-112 -140 -201 -214 0
-112 -140 -202 -213 0
-112 -146 -172 -251 0
-112 -146 -173 -250 0
-112 -146 -174 -249 0
-112 -146 -179 -230 0
-112 -146 -180 -229 0
-112 -146 -181 -228 0
-112 -146 -200 -209 0
-112 -146 -201 -208 0
-112 -146 -202 -207 0
-112 -164 -175 -220 0
-112 -164 -192 -203 0
-112 -165 -191 -203 0
-113 -129 -206 -256 0
-113 -135 -180 -256 0
-113 -135 -181 -255 0
-113 -135 -191 -236 0
-113 -138 -189 -235 0
-113 -139 -171 -276 0
-113 -139 -173 -273 0
-113 -139 -174 -272 0
-113 -139 -189 -230 0
-113 -139 -191 -227 0
-113 -139 -192 -226 0
-113 -139 -198 -220 0
-113 -139 -199 -219 0
-113 -139 -202 -217 0
-113 -140 -171 -266 0
-113 -140 -173 -263 0
-113 -140 -174 -262 0
-113 -140 -184 -230 0
-113 -140 -186 -227 0
-113 -140 -187 -226 0
-113 -140 -198 -215 0
-113 -140 -199 -214 0
-113 -140 -202 -212 0
-113 -146 -171 -251 0
-113 -146 -173 -248 0
-113 -146 -174 -247 0
-113 -146 -178 -230 0
-113 -146 -180 -227 0
-113 -146 -181 -226 0
-113 -146 -198 -209 0
-113 -146 -199 -208 0
-113 -146 -202 -206 0
-113 -162 -175 -220 0
-113 -163 -169 -235 0
-113 -166 -169 -233 0
-114 -127 -203 -275 0
-114 -127 -207 -256 0
-114 -127 -209 -254 0
-114 -128 -203 -273 0
-114 -128 -206 -256 0
-114 -128 -209 -253 0
-114 -135 -179 -256 0
-114 -135 -181 -254 0
-114 -136 -181 -253 0
-114 -139 -171 -275 0
-114 -139 -172 -273 0
-114 -139 -174 -271 0
-114 -139 -189 -229 0
-114 -139 -190 -227 0
-114 -139 -192 -225 0
-114 -139 -197 -220 0
-114 -139 -199 -218 0
-114 -139 -201 -217 0
-114 -140 -168 -284 0
-114 -140 -171 -265 0
-114 -140 -172 -263 0
-114 -140 -174 -261 0
-114 -140 -184 -229 0
-114 -140 -185 -227 0
-114 -140 -187 -225 0
-114 -140 -197 -215 0
-114 -140 -199 -213 0
-114 -140 -201 -212 0
-114 -146 -171 -250 0
-114 -146 -172 -248 0
-114 -146 -174 -246 0
-114 -146 -178 -229 0
-114 -146 -179 -227 0
-114 -146 -181 -225 0
-114 -146 -197 -209 0
-114 -146 -199 -207 0
-114 -146 -201 -206 0
-114 -161 -167 -256 0
-114 -161 -168 -241 0
-114 -161 -169 -236 0
-114 -161 -176 -215 0
-114 -161 -187 -204 0
-114 -161 -192 -203 0
-114 -163 -168 -239 0
-114 -165 -168 -238 0
-115 -139 -169 -283 0
-115 -139 -171 -274 0
-115 -139 -172 -272 0
-115 -139 -173 -271 0
-115 -139 -189 -228 0
-115 -139 -190 -226 0
-115 -139 -191 -225 0
-115 -139 -197 -219 0
-115 -139 -198 -218 0
-115 -139 -200 -217 0
-115 -140 -168 -283 0
-115 -140 -171 -264 0
-115 -140 -172 -262 0
-115 -140 -173 -261 0
-115 -140 -184 -228 0
-115 -140 -185 -226 0
-115 -140 -186 -225 0
-115 -140 -197 -214 0
-115 -140 -198 -213 0
-115 -140 -200 -212 0
-115 -146 -167 -283 0
-115 -146 -171 -249 0
-115 -146 -172 -247 0
-115 -146 -173 -246 0
-115 -146 -178 -228 0
-115 -146 -179 -226 0
-115 -146 -180 -225 0
-115 -146 -197 -208 0
-115 -146 -198 -207 0
-115 -146 -200 -206 0
-115 -161 -176 -214 0
-115 -161 -186 -204 0
-115 -161 -191 -203 0
-115 -164 -169 -233 0
-116 -126 -208 -256 0
-116 -129 -209 -252 0
-116 -130 -208 -252 0
-116 -134 -181 -255 0
-116 -134 -191 -236 0
-116 -137 -177 -256 0
-116 -137 -181 -252 0
-116 -137 -182 -245 0
-116 -137 -187 -237 0
-116 -137 -188 -236 0
-116 -138 -175 -269 0
-116 -138 -176 -259 0
-116 -138 -180 -252 0
-116 -139 -170 -276 0
-116 -139 -173 -270 0
-116 -139 -174 -269 0
-116 -139 -188 -230 0
-116 -139 -191 -224 0
-116 -139 -192 -223 0
-116 -139 -195 -220 0
-116 -139 -196 -219 0
-116 -139 -202 -216 0
-116 -140 -168 -282 0
-116 -140 -170 -266 0
-116 -140 -173 -260 0
-116 -140 -174 -259 0
-116 -140 -183 -230 0
-116 -140 -186 -224 0
-116 -140 -187 -223 0
-116 -140 -195 -215 0
-116 -140 -196 -214 0
-116 -140 -202 -211 0
-116 -146 -170 -251 0
-116 -146 -173 -245 0
-116 -146 -174 -244 0
-116 -146 -177 -230 0
-116 -146 -180 -224 0
-116 -146 -181 -223 0
-116 -146 -195 -209 0
-116 -146 -196 -208 0
-116 -146 -202 -205 0
-116 -159 -167 -256 0
-116 -159 -168 -241 0
-116 -159 -169 -236 0
-116 -159 -175 -220 0
-116 -159 -176 -215 0
-116 -159 -187 -204 0
-116 -159 -192 -203 0
-116 -160 -169 -235 0
-116 -166 -167 -252 0
-117 -128 -209 -252 0
-117 -130 -207 -252 0
-117 -136 -177 -256 0
-117 -136 -181 -252 0
-117 -136 -188 -236 0
-117 -138 -179 -252 0
-117 -139 -170 -275 0
-117 -139 -172 -270 0
-117 -139 -174 -268 0
-117 -139 -188 -229 0
-117 -139 -190 -224 0
-117 -139 -192 -222 0
-117 -139 -194 -220 0
-117 -139 -196 -218 0
-117 -139 -201 -216 0
-117 -140 -170 -265 0
-117 -140 -172 -260 0
-117 -140 -174 -258 0
-117 -140 -183 -229 0
-117 -140 -185 -224 0
-117 -140 -187 -222 0
-117 -140 -194 -215 0
-117 -140 -196 -213 0
-117 -140 -201 -211 0
-117 -146 -170 -250 0
-117 -146 -172 -245 0
-117 -146 -174 -243 0
-117 -146 -177 -229 0
-117 -146 -179 -224 0
-117 -146 -181 -222 0
-117 -146 -194 -209 0
-117 -146 -196 -207 0
-117 -146 -201 -205 0
-117 -158 -168 -241 0
-117 -158 -169 -236 0
-117 -158 -175 -220 0
-117 -165 -167 -252 0
-117 -165 -168 -237 0
-118 -126 -208 -254 0
-118 -128 -208 -252 0
-118 -129 -207 -252 0
-118 -136 -180 -252 0
-118 -137 -179 -252 0
-118 -139 -170 -274 0
-118 -139 -172 -269 0
-118 -139 -173 -268 0
-118 -139 -188 -228 0
-118 -139 -190 -223 0
-118 -139 -191 -222 0
-118 -139 -194 -219 0
-118 -139 -195 -218 0
-118 -139 -200 -216 0
-118 -140 -170 -264 0
-118 -140 -172 -259 0
-118 -140 -173 -258 0
-118 -140 -183 -228 0
-118 -140 -185 -223 0
-118 -140 -186 -222 0
-118 -140 -194 -214 0
-118 -140 -195 -213 0
-118 -140 -200 -211 0
-118 -146 -170 -249 0
-118 -146 -172 -244 0
-118 -146 -173 -243 0
-118 -146 -177 -228 0
-118 -146 -179 -223 0
-118 -146 -180 -222 0
-118 -146 -194 -208 0
-118 -146 -195 -207 0
-118 -146 -200 -205 0
-118 -158 -169 -235 0
-118 -164 -167 -252 0
-118 -164 -168 -237 0
-119 -126 -206 -256 0
-119 -127 -209 -252 0
-119 -130 -206 -252 0
-119 -135 -176 -260 0
-119 -135 -181 -252 0
-119 -138 -178 -252 0
-119 -139 -170 -273 0
-119 -139 -171 -270 0
-119 -139 -174 -267 0
-119 -139 -188 -227 0
-119 -139 -189 -224 0
-119 -139 -192 -221 0
-119 -139 -193 -220 0
-119 -139 -196 -217 0
-119 -139 -199 -216 0
-119 -140 -170 -263 0
-119 -140 -171 -260 0
-119 -140 -174 -257 0
-119 -140 -183 -227 0
-119 -140 -184 -224 0
-119 -140 -187 -221 0
-119 -140 -193 -215 0
-119 -140 -196 -212 0
-119 -140 -199 -211 0
-119 -146 -170 -248 0
-119 -146 -171 -245 0
-119 -146 -174 -242 0
-119 -146 -177 -227 0
-119 -146 -178 -224 0
-119 -146 -181 -221 0
-119 -146 -193 -209 0
-119 -146 -196 -206 0
-119 -146 -199 -205 0
-119 -157 -168 -241 0
-119 -157 -169 -236 0
-119 -157 -176 -215 0
-119 -157 -187 -204 0
-119 -160 -169 -233 0
-119 -163 -167 -252 0
-119 -163 -168 -237 0
-120 -126 -208 -253 0
-120 -127 -208 -252 0
-120 -129 -206 -252 0
-120 -135 -180 -252 0
-120 -137 -177 -253 0
-120 -137 -178 -252 0
-120 -139 -170 -272 0
-120 -139 -171 -269 0
-120 -139 -173 -267 0
-120 -139 -188 -226 0
-120 -139 -189 -223 0
-120 -139 -191 -221 0
-120 -139 -193 -219 0
-120 -139 -195 -217 0
-120 -139 -198 -216 0
-120 -140 -170 -262 0
-120 -140 -171 -259 0
-120 -140 -173 -257 0
-120 -140 -183 -226 0
-120 -140 -184 -223 0
-120 -140 -186 -221 0
-120 -140 -193 -214 0
-120 -140 -195 -212 0
-120 -140 -198 -211 0
-120 -146 -170 -247 0
-120 -146 -171 -244 0
-120 -146 -173 -242 0
-120 -146 -177 -226 0
-120 -146 -178 -223 0
-120 -146 -180 -221 0
-120 -146 -193 -208 0
-120 -146 -195 -206 0
-120 -146 -198 -205 0
-120 -162 -167 -252 0
-120 -162 -168 -237 0
-121 -126 -207 -253 0
-121 -127 -207 -252 0
-121 -128 -206 -252 0
-121 -135 -177 -254 0
-121 -135 -179 -252 0
-121 -136 -177 -253 0
-121 -136 -178 -252 0
-121 -139 -169 -277 0
-121 -139 -170 -271 0
-121 -139 -171 -268 0
-121 -139 -172 -267 0
-121 -139 -188 -225 0
-121 -139 -189 -222 0
-121 -139 -190 -221 0
-121 -139 -193 -218 0
-121 -139 -194 -217 0
-121 -139 -197 -216 0
-121 -140 -168 -277 0
-121 -140 -170 -261 0
-121 -140 -171 -258 0
-121 -140 -172 -257 0
-121 -140 -183 -225 0
-121 -140 -184 -222 0
-121 -140 -185 -221 0
-121 -140 -193 -213 0
-121 -140 -194 -212 0
-121 -140 -197 -211 0
-121 -146 -167 -277 0
-121 -146 -170 -246 0
-121 -146 -171 -243 0
-121 -146 -172 -242 0
-121 -146 -177 -225 0
-121 -146 -178 -222 0
-121 -146 -179 -221 0
-121 -146 -193 -207 0
-121 -146 -194 -206 0
-121 -146 -197 -205 0
-121 -161 -167 -252 0
-121 -161 -177 -210 0
-121 -161 -182 -205 0
1 0
2 0
3 0
4 0
5 0
6 0
-7 0
-8 0
-9 0
-10 0
-11 0
12 0
13 0
-14 0
-15 0
-16 0
17 0
18 0
19 0
20 0
21 0
