p cnf 286 2049
-2 -3 -4 -22 -23 -31 0
-3 -5 -6 -32 -33 -46 0
-4 -5 -6 -39 -40 -46 0
7 8 9 57 58 61 0
7 8 10 57 59 62 0
7 8 11 57 60 63 0
7 9 10 58 59 64 0
7 9 11 58 60 65 0
7 10 11 59 60 66 0
8 9 10 61 62 64 0
8 9 11 61 63 65 0
8 10 11 62 63 66 0
9 10 11 64 65 66 0
-12 -17 -18 -26 -27 -57 0
-12 -17 -19 -26 -28 -58 0
-12 -18 -19 -27 -28 -61 0
13 14 15 31 32 39 0
13 14 16 31 33 40 0
13 14 20 31 37 44 0
13 14 21 31 38 45 0
13 15 16 32 33 46 0
13 15 20 32 37 50 0
13 15 21 32 38 51 0
13 16 20 33 37 55 0
13 16 21 33 38 56 0
13 20 21 37 38 66 0
14 15 16 39 40 46 0
14 15 20 39 44 50 0
14 15 21 39 45 51 0
14 16 20 40 44 55 0
14 16 21 40 45 56 0
14 20 21 44 45 66 0
15 16 20 46 50 55 0
15 16 21 46 51 56 0
15 20 21 50 51 66 0
16 20 21 55 56 66 0
-17 -18 -19 -57 -58 -61 0
-22 -26 -29 -34 -37 -59 0
-22 -26 -30 -34 -38 -60 0
-22 -27 -29 -35 -37 -62 0
-22 -27 -30 -35 -38 -63 0
-22 -28 -29 -36 -37 -64 0
-22 -28 -30 -36 -38 -65 0
-22 -29 -30 -37 -38 -66 0
-23 -26 -29 -41 -44 -59 0
-23 -26 -30 -41 -45 -60 0
-23 -27 -29 -42 -44 -62 0
-23 -27 -30 -42 -45 -63 0
-23 -28 -29 -43 -44 -64 0
-23 -28 -30 -43 -45 -65 0
-23 -29 -30 -44 -45 -66 0
24 25 26 46 47 52 0
24 25 27 46 48 53 0
24 25 28 46 49 54 0
24 26 27 47 48 57 0
24 26 28 47 49 58 0
24 26 29 47 50 59 0
24 26 30 47 51 60 0
24 27 28 48 49 61 0
24 27 29 48 50 62 0
24 27 30 48 51 63 0
24 28 29 49 50 64 0
24 28 30 49 51 65 0
25 26 27 52 53 57 0
25 26 28 52 54 58 0
25 26 29 52 55 59 0
25 26 30 52 56 60 0
25 27 28 53 54 61 0
25 27 29 53 55 62 0
25 27 30 53 56 63 0
25 28 29 54 55 64 0
25 28 30 54 56 65 0
-26 -29 -30 -59 -60 -66 0
-27 -29 -30 -62 -63 -66 0
31 34 35 41 42 57 0
31 34 36 41 43 58 0
31 35 36 42 43 61 0
-32 -34 -35 -47 -48 -57 0
32 34 35 47 48 57 0
-32 -34 -36 -47 -49 -58 0
32 34 36 47 49 58 0
-32 -34 -37 -47 -50 -59 0
-32 -34 -38 -47 -51 -60 0
-32 -35 -36 -48 -49 -61 0
32 35 36 48 49 61 0
-32 -35 -37 -48 -50 -62 0
-32 -35 -38 -48 -51 -63 0
-32 -36 -37 -49 -50 -64 0
-32 -36 -38 -49 -51 -65 0
-32 -37 -38 -50 -51 -66 0
-33 -34 -35 -52 -53 -57 0
33 34 35 52 53 57 0
-33 -34 -36 -52 -54 -58 0
33 34 36 52 54 58 0
-33 -34 -37 -52 -55 -59 0
-33 -34 -38 -52 -56 -60 0
-33 -35 -36 -53 -54 -61 0
33 35 36 53 54 61 0
-33 -35 -37 -53 -55 -62 0
-33 -35 -38 -53 -56 -63 0
-33 -36 -37 -54 -55 -64 0
-33 -36 -38 -54 -56 -65 0
-33 -37 -38 -55 -56 -66 0
-34 -35 -37 -57 -59 -62 0
-34 -35 -38 -57 -60 -63 0
-34 -36 -37 -58 -59 -64 0
-34 -36 -38 -58 -60 -65 0
-34 -37 -38 -59 -60 -66 0
-35 -36 -37 -61 -62 -64 0
-35 -36 -38 -61 -63 -65 0
-35 -37 -38 -62 -63 -66 0
-36 -37 -38 -64 -65 -66 0
-39 -41 -42 -47 -48 -57 0
39 41 42 47 48 57 0
-39 -41 -43 -47 -49 -58 0
39 41 43 47 49 58 0
-39 -41 -44 -47 -50 -59 0
-39 -41 -45 -47 -51 -60 0
-39 -42 -43 -48 -49 -61 0
39 42 43 48 49 61 0
-39 -42 -44 -48 -50 -62 0
-39 -42 -45 -48 -51 -63 0
-39 -43 -44 -49 -50 -64 0
-39 -43 -45 -49 -51 -65 0
-39 -44 -45 -50 -51 -66 0
-40 -41 -42 -52 -53 -57 0
40 41 42 52 53 57 0
-40 -41 -43 -52 -54 -58 0
40 41 43 52 54 58 0
-40 -41 -44 -52 -55 -59 0
-40 -41 -45 -52 -56 -60 0
-40 -42 -43 -53 -54 -61 0
40 42 43 53 54 61 0
-40 -42 -44 -53 -55 -62 0
-40 -42 -45 -53 -56 -63 0
-40 -43 -44 -54 -55 -64 0
-40 -43 -45 -54 -56 -65 0
-40 -44 -45 -55 -56 -66 0
-41 -42 -44 -57 -59 -62 0
-41 -42 -45 -57 -60 -63 0
-41 -43 -44 -58 -59 -64 0
41 43 44 58 59 64 0
-41 -43 -45 -58 -60 -65 0
-41 -44 -45 -59 -60 -66 0
-42 -43 -44 -61 -62 -64 0
-42 -43 -45 -61 -63 -65 0
-42 -44 -45 -62 -63 -66 0
-43 -44 -45 -64 -65 -66 0
-46 -47 -48 -52 -53 -57 0
46 47 48 52 53 57 0
-46 -47 -49 -52 -54 -58 0
46 47 49 52 54 58 0
-46 -47 -50 -52 -55 -59 0
-46 -47 -51 -52 -56 -60 0
-46 -48 -49 -53 -54 -61 0
46 48 49 53 54 61 0
-46 -48 -50 -53 -55 -62 0
-46 -48 -51 -53 -56 -63 0
-46 -49 -50 -54 -55 -64 0
-46 -49 -51 -54 -56 -65 0
-46 -50 -51 -55 -56 -66 0
-47 -48 -50 -57 -59 -62 0
-47 -48 -51 -57 -60 -63 0
-47 -49 -50 -58 -59 -64 0
-47 -49 -51 -58 -60 -65 0
-47 -50 -51 -59 -60 -66 0
-48 -49 -50 -61 -62 -64 0
-48 -49 -51 -61 -63 -65 0
-48 -50 -51 -62 -63 -66 0
-49 -50 -51 -64 -65 -66 0
-52 -53 -55 -57 -59 -62 0
-52 -53 -56 -57 -60 -63 0
-52 -54 -55 -58 -59 -64 0
-52 -54 -56 -58 -60 -65 0
-52 -55 -56 -59 -60 -66 0
-53 -54 -55 -61 -62 -64 0
-53 -54 -56 -61 -63 -65 0
-53 -55 -56 -62 -63 -66 0
-54 -55 -56 -64 -65 -66 0
-57 -59 -60 -62 -63 -66 0
-58 -59 -60 -64 -65 -66 0
-61 -62 -63 -64 -65 -66 0
67 -1 -2 -12 0
77 -2 -3 -22 0
78 -2 -4 -23 0
87 -3 -5 -32 0
88 -3 -6 -33 0
94 -4 -5 -39 0
95 -4 -6 -40 0
101 -5 -6 -46 0
112 7 8 57 0
113 7 9 58 0
114 7 10 59 0
115 7 11 60 0
116 8 9 61 0
117 8 10 62 0
118 8 11 63 0
119 9 10 64 0
120 9 11 65 0
121 10 11 66 0
126 -12 -17 -26 0
127 -12 -18 -27 0
128 -12 -19 -28 0
131 13 14 31 0
132 13 15 32 0
133 13 16 33 0
137 13 20 37 0
138 13 21 38 0
139 14 15 39 0
140 14 16 40 0
144 14 20 44 0
145 14 21 45 0
146 15 16 46 0
150 15 20 50 0
151 15 21 51 0
155 16 20 55 0
156 16 21 56 0
157 -17 -18 -57 0
158 -17 -19 -58 0
161 -18 -19 -61 0
166 20 21 66 0
170 -22 -26 -34 0
171 -22 -27 -35 0
172 -22 -28 -36 0
173 -22 -29 -37 0
174 -22 -30 -38 0
177 -23 -26 -41 0
178 -23 -27 -42 0
179 -23 -28 -43 0
180 -23 -29 -44 0
181 -23 -30 -45 0
182 24 25 46 0
183 24 26 47 0
184 24 27 48 0
185 24 28 49 0
186 24 29 50 0
187 24 30 51 0
188 25 26 52 0
189 25 27 53 0
190 25 28 54 0
191 25 29 55 0
192 25 30 56 0
193 26 27 57 0
194 26 28 58 0
195 -26 -29 -59 0
195 26 29 59 0
196 -26 -30 -60 0
196 26 30 60 0
197 27 28 61 0
198 -27 -29 -62 0
198 27 29 62 0
199 -27 -30 -63 0
199 27 30 63 0
200 -28 -29 -64 0
200 28 29 64 0
201 -28 -30 -65 0
201 28 30 65 0
202 -29 -30 -66 0
202 29 30 66 0
205 31 34 41 0
206 31 35 42 0
207 31 36 43 0
211 -32 -34 -47 0
211 32 34 47 0
212 -32 -35 -48 0
212 32 35 48 0
213 -32 -36 -49 0
213 32 36 49 0
214 -32 -37 -50 0
215 -32 -38 -51 0
216 -33 -34 -52 0
216 33 34 52 0
217 -33 -35 -53 0
217 33 35 53 0
218 -33 -36 -54 0
218 33 36 54 0
219 -33 -37 -55 0
220 -33 -38 -56 0
221 -34 -35 -57 0
221 34 35 57 0
222 -34 -36 -58 0
222 34 36 58 0
223 -34 -37 -59 0
223 34 37 59 0
224 -34 -38 -60 0
224 34 38 60 0
225 -35 -36 -61 0
225 35 36 61 0
226 -35 -37 -62 0
226 35 37 62 0
227 -35 -38 -63 0
227 35 38 63 0
228 -36 -37 -64 0
228 36 37 64 0
229 -36 -38 -65 0
229 36 38 65 0
230 -37 -38 -66 0
232 -39 -41 -47 0
232 39 41 47 0
233 -39 -42 -48 0
233 39 42 48 0
234 -39 -43 -49 0
234 39 43 49 0
235 -39 -44 -50 0
236 -39 -45 -51 0
236 39 45 51 0
237 -40 -41 -52 0
237 40 41 52 0
238 -40 -42 -53 0
238 40 42 53 0
239 -40 -43 -54 0
239 40 43 54 0
240 -40 -44 -55 0
241 -40 -45 -56 0
242 -41 -42 -57 0
242 41 42 57 0
243 -41 -43 -58 0
243 41 43 58 0
244 -41 -44 -59 0
244 41 44 59 0
245 -41 -45 -60 0
245 41 45 60 0
246 -42 -43 -61 0
246 42 43 61 0
247 -42 -44 -62 0
247 42 44 62 0
248 -42 -45 -63 0
248 42 45 63 0
249 -43 -44 -64 0
249 43 44 64 0
250 -43 -45 -65 0
250 43 45 65 0
251 -44 -45 -66 0
252 -46 -47 -52 0
252 46 47 52 0
253 -46 -48 -53 0
253 46 48 53 0
254 -46 -49 -54 0
254 46 49 54 0
255 -46 -50 -55 0
256 -46 -51 -56 0
257 -47 -48 -57 0
257 47 48 57 0
258 -47 -49 -58 0
258 47 49 58 0
259 -47 -50 -59 0
259 47 50 59 0
260 -47 -51 -60 0
260 47 51 60 0
261 -48 -49 -61 0
261 48 49 61 0
262 -48 -50 -62 0
262 48 50 62 0
263 -48 -51 -63 0
263 48 51 63 0
264 -49 -50 -64 0
264 49 50 64 0
265 -49 -51 -65 0
265 49 51 65 0
266 -50 -51 -66 0
267 -52 -53 -57 0
267 52 53 57 0
268 -52 -54 -58 0
268 52 54 58 0
269 -52 -55 -59 0
269 52 55 59 0
270 -52 -56 -60 0
270 52 56 60 0
271 -53 -54 -61 0
271 53 54 61 0
272 -53 -55 -62 0
272 53 55 62 0
273 -53 -56 -63 0
273 53 56 63 0
274 -54 -55 -64 0
274 54 55 64 0
275 -54 -56 -65 0
275 54 56 65 0
276 -55 -56 -66 0
278 -57 -59 -62 0
279 -57 -60 -63 0
280 -58 -59 -64 0
281 -58 -60 -65 0
282 -59 -60 -66 0
283 -61 -62 -64 0
284 -61 -63 -65 0
284 61 63 65 0
285 -62 -63 -66 0
285 62 63 66 0
286 -64 -65 -66 0
-67 -205 -255 -284 0
-67 -205 -256 -283 0
-67 -205 -261 -276 0
-67 -205 -263 -274 0
-67 -205 -266 -271 0
-67 -206 -252 -286 0
-67 -206 -254 -282 0
-67 -206 -255 -281 0
-67 -206 -256 -280 0
-67 -206 -258 -276 0
-67 -206 -259 -275 0
-67 -206 -264 -270 0
-67 -206 -266 -268 0
-67 -207 -255 -279 0
-67 -207 -256 -278 0
-67 -207 -257 -276 0
-67 -207 -263 -269 0
-67 -207 -266 -267 0
-67 -211 -240 -284 0
-67 -211 -241 -283 0
-67 -211 -246 -276 0
-67 -211 -251 -271 0
-67 -212 -239 -282 0
-67 -212 -240 -281 0
-67 -212 -241 -280 0
-67 -212 -251 -268 0
-67 -213 -237 -285 0
-67 -213 -240 -279 0
-67 -213 -241 -278 0
-67 -213 -244 -273 0
-67 -214 -237 -284 0
-67 -214 -238 -281 0
-67 -214 -239 -279 0
-67 -214 -242 -275 0
-67 -214 -245 -271 0
-67 -214 -246 -270 0
-67 -214 -248 -268 0
-67 -214 -250 -267 0
-67 -215 -237 -283 0
-67 -215 -238 -280 0
-67 -215 -239 -278 0
-67 -215 -242 -274 0
-67 -215 -243 -272 0
-67 -215 -244 -271 0
-67 -215 -246 -269 0
-67 -215 -247 -268 0
-67 -215 -249 -267 0
-67 -216 -234 -285 0
-67 -216 -235 -284 0
-67 -216 -236 -283 0
-67 -216 -246 -266 0
-67 -216 -248 -264 0
-67 -216 -249 -263 0
-67 -216 -251 -261 0
-67 -217 -232 -286 0
-67 -217 -235 -281 0
-67 -217 -236 -280 0
-67 -217 -249 -260 0
-67 -217 -250 -259 0
-67 -217 -251 -258 0
-67 -218 -233 -282 0
-67 -218 -235 -279 0
-67 -218 -236 -278 0
-67 -218 -247 -260 0
-67 -218 -248 -259 0
-67 -218 -251 -257 0
-67 -219 -232 -284 0
-67 -219 -233 -281 0
-67 -219 -234 -279 0
-67 -219 -243 -263 0
-67 -219 -245 -261 0
-67 -219 -246 -260 0
-67 -219 -248 -258 0
-67 -219 -250 -257 0
-67 -220 -232 -283 0
-67 -220 -233 -280 0
-67 -220 -234 -278 0
-67 -220 -242 -264 0
-67 -220 -244 -261 0
-67 -220 -247 -258 0
-67 -220 -249 -257 0
-67 -221 -235 -275 0
-67 -221 -236 -274 0
-67 -221 -240 -265 0
-67 -221 -241 -264 0
-67 -221 -249 -256 0
-67 -221 -250 -255 0
-67 -221 -251 -254 0
-67 -222 -233 -276 0
-67 -222 -235 -273 0
-67 -222 -236 -272 0
-67 -222 -238 -266 0
-67 -222 -241 -262 0
-67 -222 -248 -255 0
-67 -222 -251 -253 0
-67 -223 -236 -271 0
-67 -223 -238 -265 0
-67 -223 -239 -263 0
-67 -223 -241 -261 0
-67 -223 -246 -256 0
-67 -223 -248 -254 0
-67 -223 -250 -253 0
-67 -224 -235 -271 0
-67 -224 -238 -264 0
-67 -224 -239 -262 0
-67 -224 -240 -261 0
-67 -224 -249 -253 0
-67 -225 -232 -276 0
-67 -225 -235 -270 0
-67 -225 -237 -266 0
-67 -225 -240 -260 0
-67 -225 -241 -259 0
-67 -225 -245 -255 0
-67 -225 -251 -252 0
-67 -226 -234 -270 0
-67 -226 -236 -268 0
-67 -226 -239 -260 0
-67 -226 -241 -258 0
-67 -227 -234 -269 0
-67 -227 -235 -268 0
-67 -227 -239 -259 0
-67 -227 -240 -258 0
-67 -227 -244 -254 0
-67 -228 -232 -273 0
-67 -228 -233 -270 0
-67 -228 -237 -263 0
-67 -228 -238 -260 0
-67 -228 -241 -257 0
-67 -228 -245 -253 0
-67 -229 -235 -267 0
-67 -229 -237 -262 0
-67 -229 -238 -259 0
-67 -229 -240 -257 0
-67 -229 -244 -253 0
-67 -230 -232 -271 0
-67 -230 -233 -268 0
-67 -230 -234 -267 0
-67 -230 -237 -261 0
-67 -230 -238 -258 0
-67 -230 -239 -257 0
-67 -230 -242 -254 0
-67 -230 -243 -253 0
-67 -230 -246 -252 0
-77 -139 -267 -286 0
-77 -139 -268 -285 0
-77 -139 -269 -284 0
-77 -139 -270 -283 0
-77 -139 -271 -282 0
-77 -139 -272 -281 0
-77 -139 -273 -280 0
-77 -139 -274 -279 0
-77 -139 -275 -278 0
-77 -140 -257 -286 0
-77 -140 -258 -285 0
-77 -140 -259 -284 0
-77 -140 -260 -283 0
-77 -140 -261 -282 0
-77 -140 -262 -281 0
-77 -140 -263 -280 0
-77 -140 -264 -279 0
-77 -140 -265 -278 0
-77 -144 -252 -284 0
-77 -144 -253 -281 0
-77 -144 -254 -279 0
-77 -144 -257 -275 0
-77 -144 -258 -273 0
-77 -144 -260 -271 0
-77 -144 -261 -270 0
-77 -144 -263 -268 0
-77 -144 -265 -267 0
-77 -145 -252 -283 0
-77 -145 -253 -280 0
-77 -145 -254 -278 0
-77 -145 -257 -274 0
-77 -145 -258 -272 0
-77 -145 -259 -271 0
-77 -145 -261 -269 0
-77 -145 -262 -268 0
-77 -145 -264 -267 0
-77 -146 -242 -286 0
-77 -146 -243 -285 0
-77 -146 -244 -284 0
-77 -146 -245 -283 0
-77 -146 -246 -282 0
-77 -146 -247 -281 0
-77 -146 -248 -280 0
-77 -146 -249 -279 0
-77 -146 -250 -278 0
-77 -150 -237 -284 0
-77 -150 -238 -281 0
-77 -150 -239 -279 0
-77 -150 -242 -275 0
-77 -150 -243 -273 0
-77 -150 -245 -271 0
-77 -150 -246 -270 0
-77 -150 -248 -268 0
-77 -150 -250 -267 0
-77 -151 -237 -283 0
-77 -151 -238 -280 0
-77 -151 -239 -278 0
-77 -151 -242 -274 0
-77 -151 -243 -272 0
-77 -151 -246 -269 0
-77 -151 -247 -268 0
-77 -155 -232 -284 0
-77 -155 -233 -281 0
-77 -155 -234 -279 0
-77 -155 -242 -265 0
-77 -155 -245 -261 0
-77 -155 -246 -260 0
-77 -155 -248 -258 0
-77 -155 -250 -257 0
-77 -156 -232 -283 0
-77 -156 -233 -280 0
-77 -156 -234 -278 0
-77 -156 -242 -264 0
-77 -156 -243 -262 0
-77 -156 -244 -261 0
-77 -156 -246 -259 0
-77 -156 -247 -258 0
-77 -156 -249 -257 0
-77 -157 -234 -276 0
-77 -157 -235 -275 0
-77 -157 -236 -274 0
-77 -157 -239 -266 0
-77 -157 -240 -265 0
-77 -157 -241 -264 0
-77 -157 -249 -256 0
-77 -157 -250 -255 0
-77 -157 -251 -254 0
-77 -158 -233 -276 0
-77 -158 -235 -273 0
-77 -158 -236 -272 0
-77 -158 -238 -266 0
-77 -158 -240 -263 0
-77 -158 -241 -262 0
-77 -158 -247 -256 0
-77 -158 -248 -255 0
-77 -158 -251 -253 0
-77 -161 -232 -276 0
-77 -161 -235 -270 0
-77 -161 -236 -269 0
-77 -161 -237 -266 0
-77 -161 -240 -260 0
-77 -161 -241 -259 0
-77 -161 -244 -256 0
-77 -161 -245 -255 0
-77 -161 -251 -252 0
-77 -166 -232 -271 0
-77 -166 -233 -268 0
-77 -166 -234 -267 0
-77 -166 -237 -261 0
-77 -166 -238 -258 0
-77 -166 -239 -257 0
-77 -166 -242 -254 0
-77 -166 -243 -253 0
-77 -166 -246 -252 0
-78 -132 -267 -286 0
-78 -132 -268 -285 0
-78 -132 -269 -284 0
-78 -132 -270 -283 0
-78 -132 -271 -282 0
-78 -132 -272 -281 0
-78 -132 -273 -280 0
-78 -132 -274 -279 0
-78 -132 -275 -278 0
-78 -133 -257 -286 0
-78 -133 -258 -285 0
-78 -133 -259 -284 0
-78 -133 -260 -283 0
-78 -133 -261 -282 0
-78 -133 -262 -281 0
-78 -133 -263 -280 0
-78 -133 -264 -279 0
-78 -133 -265 -278 0
-78 -137 -252 -284 0
-78 -137 -253 -281 0
-78 -137 -254 -279 0
-78 -137 -257 -275 0
-78 -137 -258 -273 0
-78 -137 -260 -271 0
-78 -137 -261 -270 0
-78 -137 -265 -267 0
-78 -138 -252 -283 0
-78 -138 -253 -280 0
-78 -138 -254 -278 0
-78 -138 -258 -272 0
-78 -138 -259 -271 0
-78 -138 -261 -269 0
-78 -138 -262 -268 0
-78 -138 -264 -267 0
-78 -146 -221 -286 0
-78 -146 -222 -285 0
-78 -146 -223 -284 0
-78 -146 -224 -283 0
-78 -146 -225 -282 0
-78 -146 -226 -281 0
-78 -146 -227 -280 0
-78 -146 -228 -279 0
-78 -146 -229 -278 0
-78 -150 -216 -284 0
-78 -150 -217 -281 0
-78 -150 -218 -279 0
-78 -150 -221 -275 0
-78 -150 -222 -273 0
-78 -150 -224 -271 0
-78 -150 -225 -270 0
-78 -150 -227 -268 0
-78 -150 -229 -267 0
-78 -151 -216 -283 0
-78 -151 -217 -280 0
-78 -151 -218 -278 0
-78 -151 -221 -274 0
-78 -151 -222 -272 0
-78 -151 -223 -271 0
-78 -151 -225 -269 0
-78 -151 -228 -267 0
-78 -155 -211 -284 0
-78 -155 -212 -281 0
-78 -155 -213 -279 0
-78 -155 -221 -265 0
-78 -155 -222 -263 0
-78 -155 -224 -261 0
-78 -155 -225 -260 0
-78 -155 -227 -258 0
-78 -155 -229 -257 0
-78 -156 -211 -283 0
-78 -156 -212 -280 0
-78 -156 -213 -278 0
-78 -156 -222 -262 0
-78 -156 -223 -261 0
-78 -156 -225 -259 0
-78 -156 -228 -257 0
-78 -157 -213 -276 0
-78 -157 -214 -275 0
-78 -157 -215 -274 0
-78 -157 -218 -266 0
-78 -157 -219 -265 0
-78 -157 -220 -264 0
-78 -157 -228 -256 0
-78 -157 -229 -255 0
-78 -157 -230 -254 0
-78 -158 -212 -276 0
-78 -158 -214 -273 0
-78 -158 -215 -272 0
-78 -158 -217 -266 0
-78 -158 -219 -263 0
-78 -158 -220 -262 0
-78 -158 -226 -256 0
-78 -158 -227 -255 0
-78 -158 -230 -253 0
-78 -161 -211 -276 0
-78 -161 -214 -270 0
-78 -161 -215 -269 0
-78 -161 -216 -266 0
-78 -161 -219 -260 0
-78 -161 -220 -259 0
-78 -161 -223 -256 0
-78 -161 -224 -255 0
-78 -161 -230 -252 0
-78 -166 -211 -271 0
-78 -166 -212 -268 0
-78 -166 -213 -267 0
-78 -166 -216 -261 0
-78 -166 -217 -258 0
-78 -166 -218 -257 0
-78 -166 -221 -254 0
-78 -166 -222 -253 0
-78 -166 -225 -252 0
-87 -126 -238 -286 0
-87 -126 -239 -285 0
-87 -126 -240 -284 0
-87 -126 -241 -283 0
-87 -126 -246 -276 0
-87 -126 -247 -275 0
-87 -126 -248 -274 0
-87 -126 -249 -273 0
-87 -126 -250 -272 0
-87 -126 -251 -271 0
-87 -127 -237 -286 0
-87 -127 -239 -282 0
-87 -127 -240 -281 0
-87 -127 -241 -280 0
-87 -127 -243 -276 0
-87 -127 -244 -275 0
-87 -127 -245 -274 0
-87 -127 -249 -270 0
-87 -127 -250 -269 0
-87 -127 -251 -268 0
-87 -128 -237 -285 0
-87 -128 -238 -282 0
-87 -128 -240 -279 0
-87 -128 -241 -278 0
-87 -128 -244 -273 0
-87 -128 -245 -272 0
-87 -128 -247 -270 0
-87 -128 -248 -269 0
-87 -128 -251 -267 0
-87 -140 -193 -286 0
-87 -140 -195 -284 0
-87 -140 -198 -281 0
-87 -144 -188 -284 0
-87 -144 -189 -281 0
-87 -144 -190 -279 0
-87 -144 -193 -275 0
-87 -144 -194 -273 0
-87 -144 -196 -271 0
-87 -144 -197 -270 0
-87 -144 -199 -268 0
-87 -144 -201 -267 0
-87 -145 -188 -283 0
-87 -145 -190 -278 0
-87 -145 -193 -274 0
-87 -145 -194 -272 0
-87 -145 -195 -271 0
-87 -145 -197 -269 0
-87 -145 -198 -268 0
-87 -145 -200 -267 0
-87 -155 -177 -284 0
-87 -155 -178 -281 0
-87 -155 -179 -279 0
-87 -155 -193 -250 0
-87 -155 -194 -248 0
-87 -155 -196 -246 0
-87 -155 -197 -245 0
-87 -155 -199 -243 0
-87 -155 -201 -242 0
-87 -156 -177 -283 0
-87 -156 -193 -249 0
-87 -156 -194 -247 0
-87 -156 -195 -246 0
-87 -156 -197 -244 0
-87 -156 -198 -243 0
-87 -156 -200 -242 0
-87 -157 -179 -276 0
-87 -157 -180 -275 0
-87 -157 -181 -274 0
-87 -157 -190 -251 0
-87 -157 -191 -250 0
-87 -157 -192 -249 0
-87 -157 -200 -241 0
-87 -157 -201 -240 0
-87 -157 -202 -239 0
-87 -158 -178 -276 0
-87 -158 -180 -273 0
-87 -158 -181 -272 0
-87 -158 -189 -251 0
-87 -158 -191 -248 0
-87 -158 -192 -247 0
-87 -158 -198 -241 0
-87 -158 -199 -240 0
-87 -158 -202 -238 0
-87 -161 -177 -276 0
-87 -161 -180 -270 0
-87 -161 -181 -269 0
-87 -161 -188 -251 0
-87 -161 -191 -245 0
-87 -161 -192 -244 0
-87 -161 -195 -241 0
-87 -161 -196 -240 0
-87 -161 -202 -237 0
-87 -166 -188 -246 0
-87 -166 -189 -243 0
-87 -166 -190 -242 0
-87 -166 -193 -239 0
-87 -166 -194 -238 0
-87 -166 -197 -237 0
-88 -126 -233 -286 0
-88 -126 -234 -285 0
-88 -126 -235 -284 0
-88 -126 -236 -283 0
-88 -126 -246 -266 0
-88 -126 -247 -265 0
-88 -126 -248 -264 0
-88 -126 -249 -263 0
-88 -126 -251 -261 0
-88 -127 -232 -286 0
-88 -127 -234 -282 0
-88 -127 -235 -281 0
-88 -127 -236 -280 0
-88 -127 -243 -266 0
-88 -127 -244 -265 0
-88 -127 -245 -264 0
-88 -127 -249 -260 0
-88 -127 -250 -259 0
-88 -127 -251 -258 0
-88 -128 -232 -285 0
-88 -128 -233 -282 0
-88 -128 -235 -279 0
-88 -128 -236 -278 0
-88 -128 -242 -266 0
-88 -128 -244 -263 0
-88 -128 -245 -262 0
-88 -128 -247 -260 0
-88 -128 -248 -259 0
-88 -128 -251 -257 0
-88 -139 -195 -284 0
-88 -139 -196 -283 0
-88 -139 -198 -281 0
-88 -144 -183 -284 0
-88 -144 -184 -281 0
-88 -144 -185 -279 0
-88 -144 -193 -265 0
-88 -144 -194 -263 0
-88 -144 -196 -261 0
-88 -144 -197 -260 0
-88 -144 -199 -258 0
-88 -144 -201 -257 0
-88 -145 -183 -283 0
-88 -145 -184 -280 0
-88 -145 -185 -278 0
-88 -145 -193 -264 0
-88 -145 -194 -262 0
-88 -145 -195 -261 0
-88 -145 -197 -259 0
-88 -145 -198 -258 0
-88 -145 -200 -257 0
-88 -150 -177 -284 0
-88 -150 -178 -281 0
-88 -150 -179 -279 0
-88 -150 -193 -250 0
-88 -150 -194 -248 0
-88 -150 -196 -246 0
-88 -150 -197 -245 0
-88 -150 -199 -243 0
-88 -150 -201 -242 0
-88 -151 -177 -283 0
-88 -151 -178 -280 0
-88 -151 -179 -278 0
-88 -151 -193 -249 0
-88 -151 -194 -247 0
-88 -151 -195 -246 0
-88 -151 -197 -244 0
-88 -151 -198 -243 0
-88 -151 -200 -242 0
-88 -157 -179 -266 0
-88 -157 -180 -265 0
-88 -157 -181 -264 0
-88 -157 -185 -251 0
-88 -157 -186 -250 0
-88 -157 -187 -249 0
-88 -157 -200 -236 0
-88 -157 -201 -235 0
-88 -157 -202 -234 0
-88 -158 -178 -266 0
-88 -158 -180 -263 0
-88 -158 -181 -262 0
-88 -158 -184 -251 0
-88 -158 -186 -248 0
-88 -158 -187 -247 0
-88 -158 -198 -236 0
-88 -158 -199 -235 0
-88 -158 -202 -233 0
-88 -161 -177 -266 0
-88 -161 -180 -260 0
-88 -161 -181 -259 0
-88 -161 -183 -251 0
-88 -161 -186 -245 0
-88 -161 -187 -244 0
-88 -161 -195 -236 0
-88 -161 -196 -235 0
-88 -161 -202 -232 0
-88 -166 -177 -261 0
-88 -166 -178 -258 0
-88 -166 -179 -257 0
-88 -166 -183 -246 0
-88 -166 -184 -243 0
-88 -166 -185 -242 0
-88 -166 -193 -234 0
-88 -166 -194 -233 0
-88 -166 -197 -232 0
-94 -126 -217 -286 0
-94 -126 -218 -285 0
-94 -126 -219 -284 0
-94 -126 -220 -283 0
-94 -126 -225 -276 0
-94 -126 -226 -275 0
-94 -126 -227 -274 0
-94 -126 -228 -273 0
-94 -126 -229 -272 0
-94 -126 -230 -271 0
-94 -127 -216 -286 0
-94 -127 -218 -282 0
-94 -127 -219 -281 0
-94 -127 -220 -280 0
-94 -127 -222 -276 0
-94 -127 -223 -275 0
-94 -127 -224 -274 0
-94 -127 -228 -270 0
-94 -127 -229 -269 0
-94 -127 -230 -268 0
-94 -128 -216 -285 0
-94 -128 -217 -282 0
-94 -128 -219 -279 0
-94 -128 -220 -278 0
-94 -128 -221 -276 0
-94 -128 -224 -272 0
-94 -128 -226 -270 0
-94 -128 -227 -269 0
-94 -128 -230 -267 0
-94 -133 -195 -284 0
-94 -133 -198 -281 0
-94 -137 -188 -284 0
-94 -137 -189 -281 0
-94 -137 -190 -279 0
-94 -137 -193 -275 0
-94 -137 -194 -273 0
-94 -137 -196 -271 0
-94 -137 -199 -268 0
-94 -137 -201 -267 0
-94 -138 -188 -283 0
-94 -138 -189 -280 0
-94 -138 -190 -278 0
-94 -138 -193 -274 0
-94 -138 -194 -272 0
-94 -138 -195 -271 0
-94 -138 -197 -269 0
-94 -138 -198 -268 0
-94 -138 -200 -267 0
-94 -155 -170 -284 0
-94 -155 -171 -281 0
-94 -155 -193 -229 0
-94 -155 -194 -227 0
-94 -155 -196 -225 0
-94 -155 -197 -224 0
-94 -155 -199 -222 0
-94 -155 -201 -221 0
-94 -156 -170 -283 0
-94 -156 -171 -280 0
-94 -156 -193 -228 0
-94 -156 -194 -226 0
-94 -156 -195 -225 0
-94 -156 -197 -223 0
-94 -156 -198 -222 0
-94 -156 -200 -221 0
-94 -157 -172 -276 0
-94 -157 -173 -275 0
-94 -157 -174 -274 0
-94 -157 -190 -230 0
-94 -157 -191 -229 0
-94 -157 -192 -228 0
-94 -157 -200 -220 0
-94 -157 -201 -219 0
-94 -157 -202 -218 0
-94 -158 -171 -276 0
-94 -158 -173 -273 0
-94 -158 -174 -272 0
-94 -158 -189 -230 0
-94 -158 -191 -227 0
-94 -158 -192 -226 0
-94 -158 -198 -220 0
-94 -158 -199 -219 0
-94 -158 -202 -217 0
-94 -161 -170 -276 0
-94 -161 -173 -270 0
-94 -161 -174 -269 0
-94 -161 -188 -230 0
-94 -161 -191 -224 0
-94 -161 -192 -223 0
-94 -161 -195 -220 0
-94 -161 -196 -219 0
-94 -161 -202 -216 0
-94 -166 -170 -271 0
-94 -166 -171 -268 0
-94 -166 -188 -225 0
-94 -166 -189 -222 0
-94 -166 -190 -221 0
-94 -166 -193 -218 0
-94 -166 -194 -217 0
-94 -166 -197 -216 0
-95 -126 -212 -286 0
-95 -126 -213 -285 0
-95 -126 -214 -284 0
-95 -126 -215 -283 0
-95 -126 -225 -266 0
-95 -126 -226 -265 0
-95 -126 -227 -264 0
-95 -126 -228 -263 0
-95 -126 -230 -261 0
-95 -127 -211 -286 0
-95 -127 -213 -282 0
-95 -127 -214 -281 0
-95 -127 -215 -280 0
-95 -127 -222 -266 0
-95 -127 -223 -265 0
-95 -127 -224 -264 0
-95 -127 -228 -260 0
-95 -127 -229 -259 0
-95 -127 -230 -258 0
-95 -128 -211 -285 0
-95 -128 -212 -282 0
-95 -128 -214 -279 0
-95 -128 -215 -278 0
-95 -128 -221 -266 0
-95 -128 -224 -262 0
-95 -128 -226 -260 0
-95 -128 -227 -259 0
-95 -128 -230 -257 0
-95 -132 -195 -284 0
-95 -132 -196 -283 0
-95 -132 -199 -280 0
-95 -132 -201 -278 0
-95 -137 -183 -284 0
-95 -137 -184 -281 0
-95 -137 -185 -279 0
-95 -137 -193 -265 0
-95 -137 -194 -263 0
-95 -137 -196 -261 0
-95 -137 -199 -258 0
-95 -137 -201 -257 0
-95 -138 -183 -283 0
-95 -138 -184 -280 0
-95 -138 -185 -278 0
-95 -138 -193 -264 0
-95 -138 -194 -262 0
-95 -138 -195 -261 0
-95 -138 -197 -259 0
-95 -138 -198 -258 0
-95 -138 -200 -257 0
-95 -150 -171 -281 0
-95 -150 -172 -279 0
-95 -150 -193 -229 0
-95 -150 -194 -227 0
-95 -150 -196 -225 0
-95 -150 -197 -224 0
-95 -150 -199 -222 0
-95 -150 -201 -221 0
-95 -151 -170 -283 0
-95 -151 -171 -280 0
-95 -151 -172 -278 0
-95 -151 -193 -228 0
-95 -151 -194 -226 0
-95 -151 -195 -225 0
-95 -151 -197 -223 0
-95 -151 -198 -222 0
-95 -151 -200 -221 0
-95 -157 -172 -266 0
-95 -157 -173 -265 0
-95 -157 -174 -264 0
-95 -157 -185 -230 0
-95 -157 -186 -229 0
-95 -157 -187 -228 0
-95 -157 -200 -215 0
-95 -157 -201 -214 0
-95 -157 -202 -213 0
-95 -158 -171 -266 0
-95 -158 -173 -263 0
-95 -158 -174 -262 0
-95 -158 -184 -230 0
-95 -158 -186 -227 0
-95 -158 -187 -226 0
-95 -158 -198 -215 0
-95 -158 -199 -214 0
-95 -158 -202 -212 0
-95 -161 -170 -266 0
-95 -161 -173 -260 0
-95 -161 -174 -259 0
-95 -161 -183 -230 0
-95 -161 -186 -224 0
-95 -161 -187 -223 0
-95 -161 -195 -215 0
-95 -161 -196 -214 0
-95 -161 -202 -211 0
-95 -166 -170 -261 0
-95 -166 -171 -258 0
-95 -166 -183 -225 0
-95 -166 -184 -222 0
-95 -166 -185 -221 0
-95 -166 -193 -213 0
-95 -166 -194 -212 0
-95 -166 -197 -211 0
-101 -126 -206 -286 0
-101 -126 -225 -251 0
-101 -126 -227 -249 0
-101 -126 -228 -248 0
-101 -126 -230 -246 0
-101 -127 -205 -286 0
-101 -127 -207 -282 0
-101 -127 -222 -251 0
-101 -127 -223 -250 0
-101 -127 -224 -249 0
-101 -127 -228 -245 0
-101 -127 -229 -244 0
-101 -127 -230 -243 0
-101 -128 -205 -285 0
-101 -128 -206 -282 0
-101 -128 -221 -251 0
-101 -128 -223 -248 0
-101 -128 -230 -242 0
-101 -131 -193 -286 0
-101 -131 -194 -285 0
-101 -131 -195 -284 0
-101 -131 -196 -283 0
-101 -131 -197 -282 0
-101 -131 -198 -281 0
-101 -131 -199 -280 0
-101 -131 -200 -279 0
-101 -131 -201 -278 0
-101 -137 -177 -284 0
-101 -137 -193 -250 0
-101 -137 -194 -248 0
-101 -137 -196 -246 0
-101 -137 -199 -243 0
-101 -137 -201 -242 0
-101 -138 -193 -249 0
-101 -138 -194 -247 0
-101 -138 -195 -246 0
-101 -138 -198 -243 0
-101 -138 -200 -242 0
-101 -144 -171 -281 0
-101 -144 -193 -229 0
-101 -144 -194 -227 0
-101 -144 -197 -224 0
-101 -144 -199 -222 0
-101 -144 -201 -221 0
-101 -145 -193 -228 0
-101 -145 -194 -226 0
-101 -145 -200 -221 0
-101 -157 -172 -251 0
-101 -157 -173 -250 0
-101 -157 -174 -249 0
-101 -157 -179 -230 0
-101 -157 -180 -229 0
-101 -157 -181 -228 0
-101 -157 -202 -207 0
-101 -158 -171 -251 0
-101 -158 -173 -248 0
-101 -158 -174 -247 0
-101 -158 -178 -230 0
-101 -158 -180 -227 0
-101 -158 -181 -226 0
-101 -158 -202 -206 0
-101 -161 -170 -251 0
-101 -161 -173 -245 0
-101 -161 -174 -244 0
-101 -161 -177 -230 0
-101 -161 -180 -224 0
-101 -161 -181 -223 0
-101 -161 -202 -205 0
-101 -166 -172 -242 0
-101 -166 -179 -221 0
-101 -166 -193 -207 0
-101 -166 -194 -206 0
-101 -166 -197 -205 0
-112 -128 -214 -241 0
-112 -128 -215 -240 0
-112 -128 -219 -236 0
-112 -128 -220 -235 0
-112 -131 -182 -286 0
-112 -131 -185 -276 0
-112 -131 -186 -275 0
-112 -131 -187 -274 0
-112 -131 -190 -266 0
-112 -131 -191 -265 0
-112 -131 -192 -264 0
-112 -131 -200 -256 0
-112 -131 -201 -255 0
-112 -131 -202 -254 0
-112 -132 -180 -275 0
-112 -132 -181 -274 0
-112 -132 -190 -251 0
-112 -132 -191 -250 0
-112 -132 -192 -249 0
-112 -132 -200 -241 0
-112 -132 -201 -240 0
-112 -132 -202 -239 0
-112 -133 -180 -265 0
-112 -133 -181 -264 0
-112 -133 -185 -251 0
-112 -133 -186 -250 0
-112 -133 -187 -249 0
-112 -133 -200 -236 0
-112 -133 -201 -235 0
-112 -133 -202 -234 0
-112 -137 -181 -254 0
-112 -137 -182 -250 0
-112 -137 -185 -241 0
-112 -137 -187 -239 0
-112 -137 -190 -236 0
-112 -137 -192 -234 0
-112 -138 -182 -249 0
-112 -138 -185 -240 0
-112 -138 -186 -239 0
-112 -138 -190 -235 0
-112 -138 -191 -234 0
-112 -139 -173 -275 0
-112 -139 -174 -274 0
-112 -139 -190 -230 0
-112 -139 -191 -229 0
-112 -139 -192 -228 0
-112 -139 -200 -220 0
-112 -139 -201 -219 0
-112 -139 -202 -218 0
-112 -140 -172 -266 0
-112 -140 -173 -265 0
-112 -140 -174 -264 0
-112 -140 -185 -230 0
-112 -140 -186 -229 0
-112 -140 -187 -228 0
-112 -140 -200 -215 0
-112 -140 -201 -214 0
-112 -140 -202 -213 0
-112 -144 -174 -254 0
-112 -144 -182 -229 0
-112 -144 -185 -220 0
-112 -144 -187 -218 0
-112 -144 -190 -215 0
-112 -144 -192 -213 0
-112 -145 -173 -254 0
-112 -145 -182 -228 0
-112 -145 -185 -219 0
-112 -145 -186 -218 0
-112 -145 -190 -214 0
-112 -145 -191 -213 0
-112 -146 -172 -251 0
-112 -146 -173 -250 0
-112 -146 -174 -249 0
-112 -146 -179 -230 0
-112 -146 -180 -229 0
-112 -146 -181 -228 0
-112 -150 -172 -241 0
-112 -150 -174 -239 0
-112 -150 -179 -220 0
-112 -150 -181 -218 0
-112 -150 -192 -207 0
-112 -151 -172 -240 0
-112 -151 -173 -239 0
-112 -151 -179 -219 0
-112 -151 -180 -218 0
-112 -151 -191 -207 0
-112 -155 -172 -236 0
-112 -155 -174 -234 0
-112 -155 -179 -215 0
-112 -155 -181 -213 0
-112 -155 -187 -207 0
-112 -156 -172 -235 0
-112 -156 -173 -234 0
-112 -156 -179 -214 0
-112 -156 -180 -213 0
-112 -156 -186 -207 0
-112 -166 -182 -207 0
-113 -127 -214 -241 0
-113 -127 -215 -240 0
-113 -127 -219 -236 0
-113 -127 -220 -235 0
-113 -131 -182 -285 0
-113 -131 -184 -276 0
-113 -131 -186 -273 0
-113 -131 -187 -272 0
-113 -131 -189 -266 0
-113 -131 -191 -263 0
-113 -131 -192 -262 0
-113 -131 -198 -256 0
-113 -131 -199 -255 0
-113 -131 -202 -253 0
-113 -132 -180 -273 0
-113 -132 -181 -272 0
-113 -132 -189 -251 0
-113 -132 -191 -248 0
-113 -132 -192 -247 0
-113 -132 -198 -241 0
-113 -132 -199 -240 0
-113 -132 -202 -238 0
-113 -133 -180 -263 0
-113 -133 -181 -262 0
-113 -133 -184 -251 0
-113 -133 -186 -248 0
-113 -133 -187 -247 0
-113 -133 -198 -236 0
-113 -133 -199 -235 0
-113 -133 -202 -233 0
-113 -137 -178 -256 0
-113 -137 -182 -248 0
-113 -137 -184 -241 0
-113 -137 -187 -238 0
-113 -137 -189 -236 0
-113 -137 -192 -233 0
-113 -138 -182 -247 0
-113 -138 -184 -240 0
-113 -138 -186 -238 0
-113 -138 -189 -235 0
-113 -138 -191 -233 0
-113 -139 -173 -273 0
-113 -139 -174 -272 0
-113 -139 -189 -230 0
-113 -139 -191 -227 0
-113 -139 -192 -226 0
-113 -139 -198 -220 0
-113 -139 -199 -219 0
-113 -139 -202 -217 0
-113 -140 -171 -266 0
-113 -140 -173 -263 0
-113 -140 -174 -262 0
-113 -140 -184 -230 0
-113 -140 -186 -227 0
-113 -140 -187 -226 0
-113 -140 -198 -215 0
-113 -140 -199 -214 0
-113 -140 -202 -212 0
-113 -144 -182 -227 0
-113 -144 -184 -220 0
-113 -144 -187 -217 0
-113 -144 -189 -215 0
-113 -144 -192 -212 0
-113 -145 -182 -226 0
-113 -145 -184 -219 0
-113 -145 -186 -217 0
-113 -145 -189 -214 0
-113 -145 -191 -212 0
-113 -146 -171 -251 0
-113 -146 -173 -248 0
-113 -146 -174 -247 0
-113 -146 -178 -230 0
-113 -146 -180 -227 0
-113 -146 -181 -226 0
-113 -146 -202 -206 0
-113 -150 -171 -241 0
-113 -150 -174 -238 0
-113 -150 -178 -220 0
-113 -150 -181 -217 0
-113 -150 -192 -206 0
-113 -151 -171 -240 0
-113 -151 -173 -238 0
-113 -151 -178 -219 0
-113 -151 -180 -217 0
-113 -151 -191 -206 0
-113 -155 -171 -236 0
-113 -155 -174 -233 0
-113 -155 -178 -215 0
-113 -155 -181 -212 0
-113 -155 -187 -206 0
-113 -156 -171 -235 0
-113 -156 -173 -233 0
-113 -156 -178 -214 0
-113 -156 -180 -212 0
-113 -156 -186 -206 0
-113 -166 -182 -206 0
-114 -127 -207 -256 0
-114 -127 -213 -241 0
-114 -127 -215 -239 0
-114 -127 -218 -236 0
-114 -127 -220 -234 0
-114 -128 -206 -256 0
-114 -128 -215 -238 0
-114 -128 -217 -236 0
-114 -128 -220 -233 0
-114 -131 -182 -284 0
-114 -131 -184 -275 0
-114 -131 -185 -273 0
-114 -131 -187 -271 0
-114 -131 -189 -265 0
-114 -131 -190 -263 0
-114 -131 -192 -261 0
-114 -131 -197 -256 0
-114 -131 -199 -254 0
-114 -131 -201 -253 0
-114 -132 -179 -273 0
-114 -132 -189 -250 0
-114 -132 -192 -246 0
-114 -132 -197 -241 0
-114 -132 -199 -239 0
-114 -132 -201 -238 0
-114 -133 -181 -261 0
-114 -133 -184 -250 0
-114 -133 -185 -248 0
-114 -133 -187 -246 0
-114 -133 -197 -236 0
-114 -133 -199 -234 0
-114 -133 -201 -233 0
-114 -138 -182 -246 0
-114 -138 -184 -239 0
-114 -138 -185 -238 0
-114 -138 -189 -234 0
-114 -138 -190 -233 0
-114 -139 -174 -271 0
-114 -139 -189 -229 0
-114 -139 -190 -227 0
-114 -139 -192 -225 0
-114 -139 -197 -220 0
-114 -139 -199 -218 0
-114 -140 -171 -265 0
-114 -140 -172 -263 0
-114 -140 -174 -261 0
-114 -140 -184 -229 0
-114 -140 -185 -227 0
-114 -140 -187 -225 0
-114 -140 -197 -215 0
-114 -140 -199 -213 0
-114 -140 -201 -212 0
-114 -145 -182 -225 0
-114 -145 -184 -218 0
-114 -145 -185 -217 0
-114 -145 -189 -213 0
-114 -145 -190 -212 0
-114 -146 -171 -250 0
-114 -146 -172 -248 0
-114 -146 -174 -246 0
-114 -146 -178 -229 0
-114 -146 -179 -227 0
-114 -146 -181 -225 0
-114 -146 -199 -207 0
-114 -146 -201 -206 0
-114 -151 -171 -239 0
-114 -151 -178 -218 0
-114 -151 -189 -207 0
-114 -151 -190 -206 0
-114 -156 -171 -234 0
-114 -156 -172 -233 0
-114 -156 -179 -212 0
-114 -156 -184 -207 0
-114 -156 -185 -206 0
-115 -127 -207 -255 0
-115 -127 -213 -240 0
-115 -127 -214 -239 0
-115 -127 -218 -235 0
-115 -127 -219 -234 0
-115 -128 -206 -255 0
-115 -128 -212 -240 0
-115 -128 -217 -235 0
-115 -128 -219 -233 0
-115 -131 -182 -283 0
-115 -131 -184 -274 0
-115 -131 -185 -272 0
-115 -131 -186 -271 0
-115 -131 -189 -264 0
-115 -131 -190 -262 0
-115 -131 -191 -261 0
-115 -131 -197 -255 0
-115 -131 -198 -254 0
-115 -131 -200 -253 0
-115 -132 -180 -271 0
-115 -132 -189 -249 0
-115 -132 -190 -247 0
-115 -132 -191 -246 0
-115 -132 -197 -240 0
-115 -132 -198 -239 0
-115 -132 -200 -238 0
-115 -133 -178 -264 0
-115 -133 -184 -249 0
-115 -133 -185 -247 0
-115 -133 -186 -246 0
-115 -133 -197 -235 0
-115 -133 -198 -234 0
-115 -133 -200 -233 0
-115 -137 -179 -253 0
-115 -137 -182 -246 0
-115 -137 -184 -239 0
-115 -137 -185 -238 0
-115 -137 -189 -234 0
-115 -137 -190 -233 0
-115 -139 -173 -271 0
-115 -139 -189 -228 0
-115 -139 -190 -226 0
-115 -139 -191 -225 0
-115 -139 -197 -219 0
-115 -139 -198 -218 0
-115 -139 -200 -217 0
-115 -140 -171 -264 0
-115 -140 -172 -262 0
-115 -140 -173 -261 0
-115 -140 -184 -228 0
-115 -140 -185 -226 0
-115 -140 -186 -225 0
-115 -140 -197 -214 0
-115 -140 -198 -213 0
-115 -140 -200 -212 0
-115 -144 -182 -225 0
-115 -144 -184 -218 0
-115 -144 -185 -217 0
-115 -144 -189 -213 0
-115 -144 -190 -212 0
-115 -146 -171 -249 0
-115 -146 -172 -247 0
-115 -146 -173 -246 0
-115 -146 -178 -228 0
-115 -146 -179 -226 0
-115 -146 -180 -225 0
-115 -146 -198 -207 0
-115 -146 -200 -206 0
-115 -150 -171 -239 0
-115 -150 -178 -218 0
-115 -150 -179 -217 0
-115 -150 -189 -207 0
-115 -150 -190 -206 0
-115 -155 -171 -234 0
-115 -155 -178 -213 0
-115 -155 -184 -207 0
-115 -155 -185 -206 0
-116 -126 -214 -241 0
-116 -126 -215 -240 0
-116 -126 -219 -236 0
-116 -126 -220 -235 0
-116 -131 -182 -282 0
-116 -131 -183 -276 0
-116 -131 -186 -270 0
-116 -131 -187 -269 0
-116 -131 -188 -266 0
-116 -131 -191 -260 0
-116 -131 -192 -259 0
-116 -131 -195 -256 0
-116 -131 -196 -255 0
-116 -131 -202 -252 0
-116 -132 -180 -270 0
-116 -132 -181 -269 0
-116 -132 -188 -251 0
-116 -132 -191 -245 0
-116 -132 -192 -244 0
-116 -132 -195 -241 0
-116 -132 -196 -240 0
-116 -132 -202 -237 0
-116 -133 -180 -260 0
-116 -133 -181 -259 0
-116 -133 -183 -251 0
-116 -133 -186 -245 0
-116 -133 -187 -244 0
-116 -133 -195 -236 0
-116 -133 -196 -235 0
-116 -133 -202 -232 0
-116 -137 -181 -252 0
-116 -137 -182 -245 0
-116 -137 -183 -241 0
-116 -137 -187 -237 0
-116 -137 -188 -236 0
-116 -137 -192 -232 0
-116 -138 -180 -252 0
-116 -138 -182 -244 0
-116 -138 -183 -240 0
-116 -138 -186 -237 0
-116 -138 -188 -235 0
-116 -138 -191 -232 0
-116 -139 -173 -270 0
-116 -139 -174 -269 0
-116 -139 -188 -230 0
-116 -139 -191 -224 0
-116 -139 -192 -223 0
-116 -139 -195 -220 0
-116 -139 -196 -219 0
-116 -139 -202 -216 0
-116 -140 -170 -266 0
-116 -140 -173 -260 0
-116 -140 -174 -259 0
-116 -140 -183 -230 0
-116 -140 -186 -224 0
-116 -140 -187 -223 0
-116 -140 -195 -215 0
-116 -140 -196 -214 0
-116 -140 -202 -211 0
-116 -144 -174 -252 0
-116 -144 -182 -224 0
-116 -144 -183 -220 0
-116 -144 -187 -216 0
-116 -144 -188 -215 0
-116 -144 -192 -211 0
-116 -145 -173 -252 0
-116 -145 -182 -223 0
-116 -145 -183 -219 0
-116 -145 -186 -216 0
-116 -145 -188 -214 0
-116 -145 -191 -211 0
-116 -146 -170 -251 0
-116 -146 -173 -245 0
-116 -146 -174 -244 0
-116 -146 -177 -230 0
-116 -146 -180 -224 0
-116 -146 -181 -223 0
-116 -146 -202 -205 0
-116 -150 -170 -241 0
-116 -150 -174 -237 0
-116 -150 -177 -220 0
-116 -150 -181 -216 0
-116 -150 -192 -205 0
-116 -151 -170 -240 0
-116 -151 -173 -237 0
-116 -151 -177 -219 0
-116 -151 -180 -216 0
-116 -151 -191 -205 0
-116 -155 -170 -236 0
-116 -155 -174 -232 0
-116 -155 -177 -215 0
-116 -155 -181 -211 0
-116 -155 -187 -205 0
-116 -156 -170 -235 0
-116 -156 -173 -232 0
-116 -156 -177 -214 0
-116 -156 -180 -211 0
-116 -156 -186 -205 0
-116 -166 -182 -205 0
-117 -126 -207 -256 0
-117 -126 -215 -239 0
-117 -126 -218 -236 0
-117 -126 -220 -234 0
-117 -128 -205 -256 0
-117 -128 -211 -241 0
-117 -128 -215 -237 0
-117 -128 -216 -236 0
-117 -131 -182 -281 0
-117 -131 -183 -275 0
-117 -131 -185 -270 0
-117 -131 -187 -268 0
-117 -131 -188 -265 0
-117 -131 -190 -260 0
-117 -131 -192 -258 0
-117 -131 -194 -256 0
-117 -131 -196 -254 0
-117 -131 -201 -252 0
-117 -132 -179 -270 0
-117 -132 -181 -268 0
-117 -132 -188 -250 0
-117 -132 -190 -245 0
-117 -132 -192 -243 0
-117 -132 -194 -241 0
-117 -132 -196 -239 0
-117 -132 -201 -237 0
-117 -133 -177 -265 0
-117 -133 -181 -258 0
-117 -133 -183 -250 0
-117 -133 -185 -245 0
-117 -133 -187 -243 0
-117 -133 -194 -236 0
-117 -133 -196 -234 0
-117 -133 -201 -232 0
-117 -138 -177 -254 0
-117 -138 -179 -252 0
-117 -138 -182 -243 0
-117 -138 -183 -239 0
-117 -138 -185 -237 0
-117 -138 -188 -234 0
-117 -138 -190 -232 0
-117 -139 -174 -268 0
-117 -139 -188 -229 0
-117 -139 -190 -224 0
-117 -139 -192 -222 0
-117 -139 -196 -218 0
-117 -139 -201 -216 0
-117 -140 -174 -258 0
-117 -140 -183 -229 0
-117 -140 -187 -222 0
-117 -140 -194 -215 0
-117 -140 -196 -213 0
-117 -140 -201 -211 0
-117 -145 -182 -222 0
-117 -145 -183 -218 0
-117 -145 -185 -216 0
-117 -145 -188 -213 0
-117 -146 -170 -250 0
-117 -146 -172 -245 0
-117 -146 -174 -243 0
-117 -146 -177 -229 0
-117 -146 -179 -224 0
-117 -146 -181 -222 0
-117 -146 -196 -207 0
-117 -146 -201 -205 0
-117 -151 -170 -239 0
-117 -151 -179 -216 0
-117 -151 -188 -207 0
-117 -151 -190 -205 0
-117 -156 -172 -232 0
-117 -156 -183 -207 0
-117 -156 -185 -205 0
-118 -126 -207 -255 0
-118 -126 -213 -240 0
-118 -126 -214 -239 0
-118 -126 -219 -234 0
-118 -128 -205 -255 0
-118 -128 -211 -240 0
-118 -128 -214 -237 0
-118 -128 -216 -235 0
-118 -128 -219 -232 0
-118 -131 -182 -280 0
-118 -131 -183 -274 0
-118 -131 -185 -269 0
-118 -131 -186 -268 0
-118 -131 -188 -264 0
-118 -131 -190 -259 0
-118 -131 -191 -258 0
-118 -131 -194 -255 0
-118 -131 -195 -254 0
-118 -131 -200 -252 0
-118 -132 -180 -268 0
-118 -132 -188 -249 0
-118 -132 -190 -244 0
-118 -132 -191 -243 0
-118 -132 -194 -240 0
-118 -132 -195 -239 0
-118 -132 -200 -237 0
-118 -133 -183 -249 0
-118 -133 -185 -244 0
-118 -133 -186 -243 0
-118 -133 -194 -235 0
-118 -133 -195 -234 0
-118 -133 -200 -232 0
-118 -137 -179 -252 0
-118 -137 -182 -243 0
-118 -137 -183 -239 0
-118 -137 -185 -237 0
-118 -137 -188 -234 0
-118 -139 -173 -268 0
-118 -139 -188 -228 0
-118 -139 -190 -223 0
-118 -139 -191 -222 0
-118 -139 -195 -218 0
-118 -139 -200 -216 0
-118 -140 -172 -259 0
-118 -140 -183 -228 0
-118 -140 -185 -223 0
-118 -140 -186 -222 0
-118 -140 -194 -214 0
-118 -140 -195 -213 0
-118 -140 -200 -211 0
-118 -144 -182 -222 0
-118 -144 -183 -218 0
-118 -144 -188 -213 0
-118 -144 -190 -211 0
-118 -146 -170 -249 0
-118 -146 -172 -244 0
-118 -146 -173 -243 0
-118 -146 -177 -228 0
-118 -146 -179 -223 0
-118 -146 -180 -222 0
-118 -146 -195 -207 0
-118 -146 -200 -205 0
-118 -150 -172 -237 0
-118 -150 -179 -216 0
-118 -150 -188 -207 0
-118 -150 -190 -205 0
-118 -155 -172 -232 0
-118 -155 -183 -207 0
-118 -155 -185 -205 0
-119 -126 -206 -256 0
-119 -126 -212 -241 0
-119 -126 -215 -238 0
-119 -126 -217 -236 0
-119 -126 -220 -233 0
-119 -127 -205 -256 0
-119 -127 -211 -241 0
-119 -127 -215 -237 0
-119 -127 -216 -236 0
-119 -127 -220 -232 0
-119 -131 -182 -279 0
-119 -131 -183 -273 0
-119 -131 -184 -270 0
-119 -131 -187 -267 0
-119 -131 -188 -263 0
-119 -131 -189 -260 0
-119 -131 -192 -257 0
-119 -131 -193 -256 0
-119 -131 -196 -253 0
-119 -131 -199 -252 0
-119 -132 -181 -267 0
-119 -132 -188 -248 0
-119 -132 -189 -245 0
-119 -132 -192 -242 0
-119 -132 -196 -238 0
-119 -132 -199 -237 0
-119 -133 -177 -263 0
-119 -133 -178 -260 0
-119 -133 -181 -257 0
-119 -133 -183 -248 0
-119 -133 -184 -245 0
-119 -133 -187 -242 0
-119 -133 -193 -236 0
-119 -133 -196 -233 0
-119 -138 -177 -253 0
-119 -138 -182 -242 0
-119 -138 -183 -238 0
-119 -138 -184 -237 0
-119 -138 -188 -233 0
-119 -138 -189 -232 0
-119 -139 -174 -267 0
-119 -139 -188 -227 0
-119 -139 -189 -224 0
-119 -139 -192 -221 0
-119 -139 -196 -217 0
-119 -139 -199 -216 0
-119 -140 -171 -260 0
-119 -140 -174 -257 0
-119 -140 -183 -227 0
-119 -140 -184 -224 0
-119 -140 -187 -221 0
-119 -140 -193 -215 0
-119 -140 -196 -212 0
-119 -140 -199 -211 0
-119 -145 -182 -221 0
-119 -145 -183 -217 0
-119 -145 -184 -216 0
-119 -145 -188 -212 0
-119 -145 -189 -211 0
-119 -146 -170 -248 0
-119 -146 -171 -245 0
-119 -146 -174 -242 0
-119 -146 -177 -227 0
-119 -146 -178 -224 0
-119 -146 -181 -221 0
-119 -146 -196 -206 0
-119 -146 -199 -205 0
-119 -151 -170 -238 0
-119 -151 -178 -216 0
-119 -151 -188 -206 0
-119 -151 -189 -205 0
-119 -156 -171 -232 0
-119 -156 -177 -212 0
-119 -156 -183 -206 0
-119 -156 -184 -205 0
-120 -126 -206 -255 0
-120 -126 -212 -240 0
-120 -126 -214 -238 0
-120 -126 -217 -235 0
-120 -126 -219 -233 0
-120 -127 -205 -255 0
-120 -127 -211 -240 0
-120 -127 -214 -237 0
-120 -127 -216 -235 0
-120 -127 -219 -232 0
-120 -131 -182 -278 0
-120 -131 -183 -272 0
-120 -131 -184 -269 0
-120 -131 -186 -267 0
-120 -131 -188 -262 0
-120 -131 -189 -259 0
-120 -131 -191 -257 0
-120 -131 -193 -255 0
-120 -131 -195 -253 0
-120 -131 -198 -252 0
-120 -132 -180 -267 0
-120 -132 -188 -247 0
-120 -132 -189 -244 0
-120 -132 -191 -242 0
-120 -132 -195 -238 0
-120 -132 -198 -237 0
-120 -133 -178 -259 0
-120 -133 -180 -257 0
-120 -133 -183 -247 0
-120 -133 -184 -244 0
-120 -133 -186 -242 0
-120 -133 -195 -233 0
-120 -133 -198 -232 0
-120 -137 -178 -252 0
-120 -137 -182 -242 0
-120 -137 -183 -238 0
-120 -137 -184 -237 0
-120 -137 -188 -233 0
-120 -137 -189 -232 0
-120 -139 -171 -269 0
-120 -139 -173 -267 0
-120 -139 -188 -226 0
-120 -139 -189 -223 0
-120 -139 -191 -221 0
-120 -139 -195 -217 0
-120 -139 -198 -216 0
-120 -140 -170 -262 0
-120 -140 -171 -259 0
-120 -140 -173 -257 0
-120 -140 -183 -226 0
-120 -140 -184 -223 0
-120 -140 -186 -221 0
-120 -140 -193 -214 0
-120 -140 -195 -212 0
-120 -140 -198 -211 0
-120 -144 -182 -221 0
-120 -144 -183 -217 0
-120 -144 -184 -216 0
-120 -144 -188 -212 0
-120 -144 -189 -211 0
-120 -146 -170 -247 0
-120 -146 -171 -244 0
-120 -146 -173 -242 0
-120 -146 -177 -226 0
-120 -146 -178 -223 0
-120 -146 -180 -221 0
-120 -146 -195 -206 0
-120 -146 -198 -205 0
-120 -150 -170 -238 0
-120 -150 -188 -206 0
-120 -150 -189 -205 0
-120 -155 -170 -233 0
-120 -155 -178 -211 0
-120 -155 -183 -206 0
-120 -155 -184 -205 0
-121 -127 -205 -254 0
-121 -127 -207 -252 0
-121 -127 -211 -239 0
-121 -127 -216 -234 0
-121 -127 -218 -232 0
-121 -128 -217 -232 0
-121 -131 -183 -271 0
-121 -131 -184 -268 0
-121 -131 -185 -267 0
-121 -131 -188 -261 0
-121 -131 -189 -258 0
-121 -131 -190 -257 0
-121 -131 -193 -254 0
-121 -131 -194 -253 0
-121 -132 -177 -271 0
-121 -132 -188 -246 0
-121 -132 -189 -243 0
-121 -132 -190 -242 0
-121 -132 -193 -239 0
-121 -132 -194 -238 0
-121 -132 -197 -237 0
-121 -133 -178 -258 0
-121 -133 -183 -246 0
-121 -133 -184 -243 0
-121 -133 -185 -242 0
-121 -133 -193 -234 0
-121 -133 -194 -233 0
-121 -133 -197 -232 0
-121 -139 -170 -271 0
-121 -139 -172 -267 0
-121 -139 -188 -225 0
-121 -139 -189 -222 0
-121 -139 -190 -221 0
-121 -139 -193 -218 0
-121 -139 -194 -217 0
-121 -139 -197 -216 0
-121 -140 -170 -261 0
-121 -140 -172 -257 0
-121 -140 -183 -225 0
-121 -140 -184 -222 0
-121 -140 -185 -221 0
-121 -140 -193 -213 0
-121 -140 -194 -212 0
-121 -140 -197 -211 0
-121 -146 -170 -246 0
-121 -146 -171 -243 0
-121 -146 -172 -242 0
-121 -146 -177 -225 0
-121 -146 -178 -222 0
-121 -146 -179 -221 0
-121 -146 -193 -207 0
-121 -146 -194 -206 0
-121 -146 -197 -205 0
-121 -157 -182 -207 0
-121 -158 -182 -206 0
-121 -161 -182 -205 0
1 0
2 0
3 0
4 0
5 0
6 0
-7 0
-8 0
-9 0
-10 0
-11 0
12 0
-13 0
-14 0
-15 0
-16 0
17 0
18 0
19 0
-20 0
-21 0
22 0
23 0
-24 0
-25 0
