p cnf 286 2980
-1 -2 -3 -12 -13 -22 0
-1 -2 -4 -12 -14 -23 0
-1 -3 -4 -13 -14 -31 0
-2 -5 -6 -24 -25 -46 0
-3 -5 -6 -32 -33 -46 0
-4 -5 -6 -39 -40 -46 0
7 8 9 57 58 61 0
7 8 10 57 59 62 0
7 8 11 57 60 63 0
7 9 10 58 59 64 0
7 9 11 58 60 65 0
7 10 11 59 60 66 0
8 9 10 61 62 64 0
8 9 11 61 63 65 0
8 10 11 62 63 66 0
9 10 11 64 65 66 0
15 16 17 46 47 52 0
15 16 18 46 48 53 0
15 16 19 46 49 54 0
15 16 20 46 50 55 0
15 16 21 46 51 56 0
15 17 18 47 48 57 0
15 17 19 47 49 58 0
15 17 20 47 50 59 0
15 17 21 47 51 60 0
15 18 19 48 49 61 0
15 18 20 48 50 62 0
15 18 21 48 51 63 0
15 19 20 49 50 64 0
15 19 21 49 51 65 0
15 20 21 50 51 66 0
16 17 18 52 53 57 0
16 17 19 52 54 58 0
16 17 20 52 55 59 0
16 17 21 52 56 60 0
16 18 19 53 54 61 0
16 18 20 53 55 62 0
16 18 21 53 56 63 0
16 19 20 54 55 64 0
16 19 21 54 56 65 0
16 20 21 55 56 66 0
17 19 20 58 59 64 0
17 19 21 58 60 65 0
22 23 24 31 32 39 0
22 23 25 31 33 40 0
22 23 26 31 34 41 0
22 23 27 31 35 42 0
22 23 28 31 36 43 0
22 23 29 31 37 44 0
22 23 30 31 38 45 0
22 24 25 32 33 46 0
22 24 26 32 34 47 0
22 24 27 32 35 48 0
22 24 28 32 36 49 0
22 24 29 32 37 50 0
22 24 30 32 38 51 0
22 25 26 33 34 52 0
22 25 27 33 35 53 0
22 25 28 33 36 54 0
22 25 29 33 37 55 0
22 25 30 33 38 56 0
22 26 27 34 35 57 0
22 26 28 34 36 58 0
22 26 29 34 37 59 0
22 26 30 34 38 60 0
22 27 28 35 36 61 0
22 27 29 35 37 62 0
22 27 30 35 38 63 0
22 28 29 36 37 64 0
22 28 30 36 38 65 0
22 29 30 37 38 66 0
23 24 25 39 40 46 0
23 24 26 39 41 47 0
23 24 27 39 42 48 0
23 24 28 39 43 49 0
23 24 29 39 44 50 0
23 24 30 39 45 51 0
23 25 26 40 41 52 0
23 25 27 40 42 53 0
23 25 28 40 43 54 0
23 25 29 40 44 55 0
23 25 30 40 45 56 0
23 26 27 41 42 57 0
23 26 28 41 43 58 0
23 26 29 41 44 59 0
23 26 30 41 45 60 0
23 27 28 42 43 61 0
23 27 29 42 44 62 0
23 27 30 42 45 63 0
23 28 29 43 44 64 0
23 29 30 44 45 66 0
-24 -26 -27 -47 -48 -57 0
-24 -26 -28 -47 -49 -58 0
-24 -26 -29 -47 -50 -59 0
-24 -26 -30 -47 -51 -60 0
-24 -27 -28 -48 -49 -61 0
-24 -27 -29 -48 -50 -62 0
-24 -27 -30 -48 -51 -63 0
-24 -28 -29 -49 -50 -64 0
-24 -28 -30 -49 -51 -65 0
-24 -29 -30 -50 -51 -66 0
-25 -26 -27 -52 -53 -57 0
-25 -26 -28 -52 -54 -58 0
-25 -26 -29 -52 -55 -59 0
-25 -26 -30 -52 -56 -60 0
-25 -27 -28 -53 -54 -61 0
-25 -27 -29 -53 -55 -62 0
-25 -27 -30 -53 -56 -63 0
-25 -28 -29 -54 -55 -64 0
-25 -28 -30 -54 -56 -65 0
-25 -29 -30 -55 -56 -66 0
-26 -27 -28 -57 -58 -61 0
-26 -27 -29 -57 -59 -62 0
-26 -27 -30 -57 -60 -63 0
-26 -28 -29 -58 -59 -64 0
-26 -28 -30 -58 -60 -65 0
-26 -29 -30 -59 -60 -66 0
-27 -28 -29 -61 -62 -64 0
-27 -28 -30 -61 -63 -65 0
-27 -29 -30 -62 -63 -66 0
-28 -29 -30 -64 -65 -66 0
31 32 33 39 40 46 0
31 32 34 39 41 47 0
31 32 35 39 42 48 0
31 32 36 39 43 49 0
31 32 37 39 44 50 0
31 32 38 39 45 51 0
31 33 34 40 41 52 0
31 33 35 40 42 53 0
31 33 36 40 43 54 0
31 33 37 40 44 55 0
31 33 38 40 45 56 0
31 34 35 41 42 57 0
31 34 36 41 43 58 0
31 34 37 41 44 59 0
31 34 38 41 45 60 0
31 35 36 42 43 61 0
31 35 37 42 44 62 0
31 35 38 42 45 63 0
31 36 37 43 44 64 0
31 36 38 43 45 65 0
31 37 38 44 45 66 0
-32 -34 -35 -47 -48 -57 0
-32 -34 -36 -47 -49 -58 0
-32 -34 -37 -47 -50 -59 0
-32 -34 -38 -47 -51 -60 0
-32 -35 -36 -48 -49 -61 0
-32 -35 -37 -48 -50 -62 0
-32 -35 -38 -48 -51 -63 0
-32 -36 -37 -49 -50 -64 0
-32 -36 -38 -49 -51 -65 0
-32 -37 -38 -50 -51 -66 0
-33 -34 -35 -52 -53 -57 0
-33 -34 -36 -52 -54 -58 0
-33 -34 -37 -52 -55 -59 0
-33 -34 -38 -52 -56 -60 0
-33 -35 -36 -53 -54 -61 0
-33 -35 -37 -53 -55 -62 0
-33 -35 -38 -53 -56 -63 0
-33 -36 -37 -54 -55 -64 0
-33 -36 -38 -54 -56 -65 0
-33 -37 -38 -55 -56 -66 0
-34 -35 -36 -57 -58 -61 0
34 35 36 57 58 61 0
-34 -35 -37 -57 -59 -62 0
-34 -35 -38 -57 -60 -63 0
-34 -36 -37 -58 -59 -64 0
-34 -36 -38 -58 -60 -65 0
-34 -37 -38 -59 -60 -66 0
-35 -36 -37 -61 -62 -64 0
-35 -36 -38 -61 -63 -65 0
-35 -37 -38 -62 -63 -66 0
-36 -37 -38 -64 -65 -66 0
-39 -41 -42 -47 -48 -57 0
-39 -41 -43 -47 -49 -58 0
-39 -41 -44 -47 -50 -59 0
-39 -41 -45 -47 -51 -60 0
-39 -42 -43 -48 -49 -61 0
-39 -42 -44 -48 -50 -62 0
-39 -42 -45 -48 -51 -63 0
-39 -43 -44 -49 -50 -64 0
-39 -43 -45 -49 -51 -65 0
-39 -44 -45 -50 -51 -66 0
-40 -41 -42 -52 -53 -57 0
-40 -41 -43 -52 -54 -58 0
-40 -41 -44 -52 -55 -59 0
-40 -41 -45 -52 -56 -60 0
-40 -42 -43 -53 -54 -61 0
-40 -42 -44 -53 -55 -62 0
-40 -42 -45 -53 -56 -63 0
-40 -43 -44 -54 -55 -64 0
-40 -43 -45 -54 -56 -65 0
-40 -44 -45 -55 -56 -66 0
-41 -42 -43 -57 -58 -61 0
-41 -42 -44 -57 -59 -62 0
-41 -42 -45 -57 -60 -63 0
-41 -43 -44 -58 -59 -64 0
-41 -43 -45 -58 -60 -65 0
-41 -44 -45 -59 -60 -66 0
-42 -43 -44 -61 -62 -64 0
-42 -43 -45 -61 -63 -65 0
-42 -44 -45 -62 -63 -66 0
-43 -44 -45 -64 -65 -66 0
-46 -47 -48 -52 -53 -57 0
-46 -47 -49 -52 -54 -58 0
-46 -47 -50 -52 -55 -59 0
-46 -47 -51 -52 -56 -60 0
-46 -48 -49 -53 -54 -61 0
-46 -48 -50 -53 -55 -62 0
-46 -48 -51 -53 -56 -63 0
-46 -49 -50 -54 -55 -64 0
-46 -49 -51 -54 -56 -65 0
-46 -50 -51 -55 -56 -66 0
-47 -48 -49 -57 -58 -61 0
-47 -48 -50 -57 -59 -62 0
-47 -48 -51 -57 -60 -63 0
-47 -49 -50 -58 -59 -64 0
-47 -49 -51 -58 -60 -65 0
-47 -50 -51 -59 -60 -66 0
-48 -49 -50 -61 -62 -64 0
-48 -49 -51 -61 -63 -65 0
-48 -50 -51 -62 -63 -66 0
-49 -50 -51 -64 -65 -66 0
-52 -53 -54 -57 -58 -61 0
-52 -53 -55 -57 -59 -62 0
-52 -53 -56 -57 -60 -63 0
-52 -54 -55 -58 -59 -64 0
-52 -54 -56 -58 -60 -65 0
-52 -55 -56 -59 -60 -66 0
-53 -54 -55 -61 -62 -64 0
-53 -54 -56 -61 -63 -65 0
-53 -55 -56 -62 -63 -66 0
-54 -55 -56 -64 -65 -66 0
-57 -58 -59 -61 -62 -64 0
-57 -58 -60 -61 -63 -65 0
-57 -59 -60 -62 -63 -66 0
-58 -59 -60 -64 -65 -66 0
-61 -62 -63 -64 -65 -66 0
67 -1 -2 -12 0
68 -1 -3 -13 0
69 -1 -4 -14 0
79 -2 -5 -24 0
80 -2 -6 -25 0
87 -3 -5 -32 0
88 -3 -6 -33 0
94 -4 -5 -39 0
95 -4 -6 -40 0
101 -5 -6 -46 0
112 7 8 57 0
113 7 9 58 0
114 7 10 59 0
115 7 11 60 0
116 8 9 61 0
117 8 10 62 0
118 8 11 63 0
119 9 10 64 0
120 9 11 65 0
121 10 11 66 0
146 15 16 46 0
147 15 17 47 0
148 15 18 48 0
149 15 19 49 0
150 15 20 50 0
151 15 21 51 0
152 16 17 52 0
153 16 18 53 0
154 16 19 54 0
155 16 20 55 0
156 16 21 56 0
157 17 18 57 0
158 17 19 58 0
159 17 20 59 0
160 17 21 60 0
161 18 19 61 0
162 18 20 62 0
163 18 21 63 0
164 19 20 64 0
165 19 21 65 0
166 20 21 66 0
167 22 23 31 0
168 22 24 32 0
169 22 25 33 0
170 22 26 34 0
171 22 27 35 0
172 22 28 36 0
173 22 29 37 0
174 22 30 38 0
175 23 24 39 0
176 23 25 40 0
177 23 26 41 0
178 23 27 42 0
179 23 28 43 0
180 23 29 44 0
181 23 30 45 0
182 24 25 46 0
183 -24 -26 -47 0
183 24 26 47 0
184 -24 -27 -48 0
184 24 27 48 0
185 -24 -28 -49 0
185 24 28 49 0
186 -24 -29 -50 0
186 24 29 50 0
187 -24 -30 -51 0
187 24 30 51 0
188 -25 -26 -52 0
188 25 26 52 0
189 -25 -27 -53 0
189 25 27 53 0
190 -25 -28 -54 0
190 25 28 54 0
191 -25 -29 -55 0
191 25 29 55 0
192 -25 -30 -56 0
192 25 30 56 0
193 -26 -27 -57 0
193 26 27 57 0
194 -26 -28 -58 0
194 26 28 58 0
195 -26 -29 -59 0
195 26 29 59 0
196 -26 -30 -60 0
196 26 30 60 0
197 -27 -28 -61 0
197 27 28 61 0
198 -27 -29 -62 0
198 27 29 62 0
199 -27 -30 -63 0
199 27 30 63 0
200 -28 -29 -64 0
200 28 29 64 0
201 -28 -30 -65 0
201 28 30 65 0
202 -29 -30 -66 0
202 29 30 66 0
203 31 32 39 0
204 31 33 40 0
205 31 34 41 0
206 31 35 42 0
207 31 36 43 0
208 31 37 44 0
209 31 38 45 0
210 32 33 46 0
211 -32 -34 -47 0
211 32 34 47 0
212 -32 -35 -48 0
212 32 35 48 0
213 -32 -36 -49 0
213 32 36 49 0
214 -32 -37 -50 0
214 32 37 50 0
215 -32 -38 -51 0
215 32 38 51 0
216 -33 -34 -52 0
216 33 34 52 0
217 -33 -35 -53 0
217 33 35 53 0
218 -33 -36 -54 0
218 33 36 54 0
219 -33 -37 -55 0
219 33 37 55 0
220 -33 -38 -56 0
220 33 38 56 0
221 -34 -35 -57 0
221 34 35 57 0
222 -34 -36 -58 0
222 34 36 58 0
223 -34 -37 -59 0
223 34 37 59 0
224 -34 -38 -60 0
224 34 38 60 0
225 -35 -36 -61 0
225 35 36 61 0
226 -35 -37 -62 0
226 35 37 62 0
227 -35 -38 -63 0
227 35 38 63 0
228 -36 -37 -64 0
228 36 37 64 0
229 -36 -38 -65 0
229 36 38 65 0
230 -37 -38 -66 0
230 37 38 66 0
231 39 40 46 0
232 -39 -41 -47 0
232 39 41 47 0
233 -39 -42 -48 0
233 39 42 48 0
234 -39 -43 -49 0
234 39 43 49 0
235 -39 -44 -50 0
235 39 44 50 0
236 -39 -45 -51 0
236 39 45 51 0
237 -40 -41 -52 0
237 40 41 52 0
238 -40 -42 -53 0
238 40 42 53 0
239 -40 -43 -54 0
239 40 43 54 0
240 -40 -44 -55 0
240 40 44 55 0
241 -40 -45 -56 0
241 40 45 56 0
242 -41 -42 -57 0
242 41 42 57 0
243 -41 -43 -58 0
243 41 43 58 0
244 -41 -44 -59 0
244 41 44 59 0
245 -41 -45 -60 0
245 41 45 60 0
246 -42 -43 -61 0
246 42 43 61 0
247 -42 -44 -62 0
247 42 44 62 0
248 -42 -45 -63 0
248 42 45 63 0
249 -43 -44 -64 0
249 43 44 64 0
250 -43 -45 -65 0
250 43 45 65 0
251 -44 -45 -66 0
251 44 45 66 0
252 -46 -47 -52 0
253 -46 -48 -53 0
254 -46 -49 -54 0
255 -46 -50 -55 0
256 -46 -51 -56 0
257 -47 -48 -57 0
258 -47 -49 -58 0
258 47 49 58 0
259 -47 -50 -59 0
259 47 50 59 0
260 -47 -51 -60 0
260 47 51 60 0
261 -48 -49 -61 0
262 -48 -50 -62 0
263 -48 -51 -63 0
264 -49 -50 -64 0
265 -49 -51 -65 0
266 -50 -51 -66 0
267 -52 -53 -57 0
268 -52 -54 -58 0
269 -52 -55 -59 0
270 -52 -56 -60 0
270 52 56 60 0
271 -53 -54 -61 0
271 53 54 61 0
272 -53 -55 -62 0
273 -53 -56 -63 0
274 -54 -55 -64 0
274 54 55 64 0
275 -54 -56 -65 0
276 -55 -56 -66 0
276 55 56 66 0
277 -57 -58 -61 0
278 -57 -59 -62 0
279 -57 -60 -63 0
279 57 60 63 0
280 -58 -59 -64 0
281 -58 -60 -65 0
282 -59 -60 -66 0
283 -61 -62 -64 0
283 61 62 64 0
284 -61 -63 -65 0
285 -62 -63 -66 0
285 62 63 66 0
286 -64 -65 -66 0
-67 -203 -267 -286 0
-67 -203 -268 -285 0
-67 -203 -269 -284 0
-67 -203 -270 -283 0
-67 -203 -271 -282 0
-67 -203 -272 -281 0
-67 -203 -273 -280 0
-67 -203 -274 -279 0
-67 -203 -275 -278 0
-67 -203 -276 -277 0
-67 -204 -257 -286 0
-67 -204 -258 -285 0
-67 -204 -259 -284 0
-67 -204 -260 -283 0
-67 -204 -261 -282 0
-67 -204 -262 -281 0
-67 -204 -263 -280 0
-67 -204 -264 -279 0
-67 -204 -265 -278 0
-67 -204 -266 -277 0
-67 -205 -253 -286 0
-67 -205 -254 -285 0
-67 -205 -255 -284 0
-67 -205 -261 -276 0
-67 -205 -262 -275 0
-67 -205 -263 -274 0
-67 -205 -264 -273 0
-67 -205 -265 -272 0
-67 -205 -266 -271 0
-67 -206 -252 -286 0
-67 -206 -254 -282 0
-67 -206 -255 -281 0
-67 -206 -256 -280 0
-67 -206 -258 -276 0
-67 -206 -259 -275 0
-67 -206 -260 -274 0
-67 -206 -264 -270 0
-67 -206 -265 -269 0
-67 -206 -266 -268 0
-67 -207 -252 -285 0
-67 -207 -253 -282 0
-67 -207 -255 -279 0
-67 -207 -257 -276 0
-67 -207 -259 -273 0
-67 -207 -260 -272 0
-67 -207 -262 -270 0
-67 -207 -263 -269 0
-67 -207 -266 -267 0
-67 -208 -253 -281 0
-67 -208 -256 -277 0
-67 -208 -257 -275 0
-67 -208 -258 -273 0
-67 -208 -260 -271 0
-67 -208 -261 -270 0
-67 -208 -263 -268 0
-67 -208 -265 -267 0
-67 -209 -253 -280 0
-67 -209 -254 -278 0
-67 -209 -257 -274 0
-67 -209 -258 -272 0
-67 -209 -259 -271 0
-67 -209 -261 -269 0
-67 -209 -262 -268 0
-67 -209 -264 -267 0
-67 -210 -242 -286 0
-67 -210 -243 -285 0
-67 -210 -244 -284 0
-67 -210 -245 -283 0
-67 -210 -246 -282 0
-67 -210 -247 -281 0
-67 -210 -249 -279 0
-67 -210 -250 -278 0
-67 -210 -251 -277 0
-67 -211 -238 -286 0
-67 -211 -239 -285 0
-67 -211 -240 -284 0
-67 -211 -241 -283 0
-67 -211 -246 -276 0
-67 -211 -247 -275 0
-67 -211 -248 -274 0
-67 -211 -249 -273 0
-67 -211 -250 -272 0
-67 -211 -251 -271 0
-67 -212 -237 -286 0
-67 -212 -239 -282 0
-67 -212 -240 -281 0
-67 -212 -241 -280 0
-67 -212 -243 -276 0
-67 -212 -244 -275 0
-67 -212 -245 -274 0
-67 -212 -249 -270 0
-67 -212 -250 -269 0
-67 -212 -251 -268 0
-67 -213 -237 -285 0
-67 -213 -238 -282 0
-67 -213 -240 -279 0
-67 -213 -241 -278 0
-67 -213 -242 -276 0
-67 -213 -244 -273 0
-67 -213 -245 -272 0
-67 -213 -247 -270 0
-67 -213 -248 -269 0
-67 -213 -251 -267 0
-67 -214 -237 -284 0
-67 -214 -238 -281 0
-67 -214 -239 -279 0
-67 -214 -241 -277 0
-67 -214 -242 -275 0
-67 -214 -243 -273 0
-67 -214 -245 -271 0
-67 -214 -246 -270 0
-67 -214 -248 -268 0
-67 -214 -250 -267 0
-67 -215 -237 -283 0
-67 -215 -238 -280 0
-67 -215 -239 -278 0
-67 -215 -240 -277 0
-67 -215 -242 -274 0
-67 -215 -243 -272 0
-67 -215 -244 -271 0
-67 -215 -246 -269 0
-67 -215 -247 -268 0
-67 -215 -249 -267 0
-67 -216 -233 -286 0
-67 -216 -234 -285 0
-67 -216 -235 -284 0
-67 -216 -236 -283 0
-67 -216 -246 -266 0
-67 -216 -247 -265 0
-67 -216 -248 -264 0
-67 -216 -249 -263 0
-67 -216 -250 -262 0
-67 -216 -251 -261 0
-67 -217 -232 -286 0
-67 -217 -234 -282 0
-67 -217 -235 -281 0
-67 -217 -236 -280 0
-67 -217 -243 -266 0
-67 -217 -244 -265 0
-67 -217 -245 -264 0
-67 -217 -249 -260 0
-67 -217 -250 -259 0
-67 -217 -251 -258 0
-67 -218 -232 -285 0
-67 -218 -233 -282 0
-67 -218 -235 -279 0
-67 -218 -236 -278 0
-67 -218 -242 -266 0
-67 -218 -244 -263 0
-67 -218 -245 -262 0
-67 -218 -247 -260 0
-67 -218 -248 -259 0
-67 -218 -251 -257 0
-67 -219 -232 -284 0
-67 -219 -233 -281 0
-67 -219 -234 -279 0
-67 -219 -236 -277 0
-67 -219 -242 -265 0
-67 -219 -243 -263 0
-67 -219 -245 -261 0
-67 -219 -246 -260 0
-67 -219 -248 -258 0
-67 -219 -250 -257 0
-67 -220 -232 -283 0
-67 -220 -233 -280 0
-67 -220 -234 -278 0
-67 -220 -235 -277 0
-67 -220 -242 -264 0
-67 -220 -243 -262 0
-67 -220 -244 -261 0
-67 -220 -246 -259 0
-67 -220 -247 -258 0
-67 -220 -249 -257 0
-67 -221 -231 -286 0
-67 -221 -234 -276 0
-67 -221 -235 -275 0
-67 -221 -236 -274 0
-67 -221 -239 -266 0
-67 -221 -240 -265 0
-67 -221 -241 -264 0
-67 -222 -231 -285 0
-67 -222 -233 -276 0
-67 -222 -235 -273 0
-67 -222 -238 -266 0
-67 -222 -240 -263 0
-67 -222 -241 -262 0
-67 -223 -231 -284 0
-67 -223 -233 -275 0
-67 -223 -234 -273 0
-67 -223 -236 -271 0
-67 -223 -238 -265 0
-67 -223 -239 -263 0
-67 -223 -241 -261 0
-67 -224 -231 -283 0
-67 -224 -233 -274 0
-67 -224 -234 -272 0
-67 -224 -235 -271 0
-67 -224 -238 -264 0
-67 -224 -239 -262 0
-67 -224 -240 -261 0
-67 -225 -231 -282 0
-67 -225 -232 -276 0
-67 -225 -235 -270 0
-67 -225 -236 -269 0
-67 -225 -237 -266 0
-67 -225 -240 -260 0
-67 -225 -241 -259 0
-67 -226 -231 -281 0
-67 -226 -232 -275 0
-67 -226 -234 -270 0
-67 -226 -236 -268 0
-67 -226 -237 -265 0
-67 -226 -239 -260 0
-67 -226 -241 -258 0
-67 -226 -250 -252 0
-67 -227 -231 -280 0
-67 -227 -232 -274 0
-67 -227 -234 -269 0
-67 -227 -235 -268 0
-67 -227 -237 -264 0
-67 -227 -239 -259 0
-67 -227 -240 -258 0
-67 -228 -231 -279 0
-67 -228 -232 -273 0
-67 -228 -233 -270 0
-67 -228 -236 -267 0
-67 -228 -237 -263 0
-67 -228 -238 -260 0
-67 -228 -241 -257 0
-67 -229 -231 -278 0
-67 -229 -232 -272 0
-67 -229 -233 -269 0
-67 -229 -235 -267 0
-67 -229 -237 -262 0
-67 -229 -238 -259 0
-67 -229 -240 -257 0
-67 -229 -244 -253 0
-67 -229 -247 -252 0
-67 -230 -231 -277 0
-67 -230 -232 -271 0
-67 -230 -233 -268 0
-67 -230 -234 -267 0
-67 -230 -237 -261 0
-67 -230 -238 -258 0
-67 -230 -239 -257 0
-68 -175 -267 -286 0
-68 -175 -268 -285 0
-68 -175 -269 -284 0
-68 -175 -270 -283 0
-68 -175 -271 -282 0
-68 -175 -272 -281 0
-68 -175 -273 -280 0
-68 -175 -274 -279 0
-68 -175 -275 -278 0
-68 -175 -276 -277 0
-68 -176 -257 -286 0
-68 -176 -258 -285 0
-68 -176 -259 -284 0
-68 -176 -260 -283 0
-68 -176 -261 -282 0
-68 -176 -262 -281 0
-68 -176 -263 -280 0
-68 -176 -264 -279 0
-68 -176 -265 -278 0
-68 -176 -266 -277 0
-68 -177 -253 -286 0
-68 -177 -254 -285 0
-68 -177 -255 -284 0
-68 -177 -261 -276 0
-68 -177 -262 -275 0
-68 -177 -263 -274 0
-68 -177 -264 -273 0
-68 -177 -265 -272 0
-68 -177 -266 -271 0
-68 -178 -252 -286 0
-68 -178 -254 -282 0
-68 -178 -255 -281 0
-68 -178 -256 -280 0
-68 -178 -258 -276 0
-68 -178 -259 -275 0
-68 -178 -260 -274 0
-68 -178 -264 -270 0
-68 -178 -265 -269 0
-68 -178 -266 -268 0
-68 -179 -252 -285 0
-68 -179 -253 -282 0
-68 -179 -255 -279 0
-68 -179 -256 -278 0
-68 -179 -257 -276 0
-68 -179 -259 -273 0
-68 -179 -260 -272 0
-68 -179 -262 -270 0
-68 -179 -263 -269 0
-68 -179 -266 -267 0
-68 -180 -252 -284 0
-68 -180 -253 -281 0
-68 -180 -257 -275 0
-68 -180 -258 -273 0
-68 -180 -260 -271 0
-68 -180 -261 -270 0
-68 -180 -263 -268 0
-68 -180 -265 -267 0
-68 -181 -252 -283 0
-68 -181 -253 -280 0
-68 -181 -254 -278 0
-68 -181 -257 -274 0
-68 -181 -258 -272 0
-68 -181 -259 -271 0
-68 -181 -261 -269 0
-68 -181 -262 -268 0
-68 -181 -264 -267 0
-68 -182 -242 -286 0
-68 -182 -243 -285 0
-68 -182 -244 -284 0
-68 -182 -245 -283 0
-68 -182 -246 -282 0
-68 -182 -247 -281 0
-68 -182 -248 -280 0
-68 -182 -249 -279 0
-68 -182 -250 -278 0
-68 -182 -251 -277 0
-68 -183 -238 -286 0
-68 -183 -239 -285 0
-68 -183 -240 -284 0
-68 -183 -241 -283 0
-68 -183 -246 -276 0
-68 -183 -247 -275 0
-68 -183 -248 -274 0
-68 -183 -249 -273 0
-68 -183 -250 -272 0
-68 -183 -251 -271 0
-68 -184 -237 -286 0
-68 -184 -239 -282 0
-68 -184 -240 -281 0
-68 -184 -241 -280 0
-68 -184 -243 -276 0
-68 -184 -244 -275 0
-68 -184 -245 -274 0
-68 -184 -249 -270 0
-68 -184 -250 -269 0
-68 -184 -251 -268 0
-68 -185 -237 -285 0
-68 -185 -238 -282 0
-68 -185 -240 -279 0
-68 -185 -241 -278 0
-68 -185 -242 -276 0
-68 -185 -244 -273 0
-68 -185 -245 -272 0
-68 -185 -247 -270 0
-68 -185 -248 -269 0
-68 -185 -251 -267 0
-68 -186 -237 -284 0
-68 -186 -238 -281 0
-68 -186 -239 -279 0
-68 -186 -241 -277 0
-68 -186 -242 -275 0
-68 -186 -243 -273 0
-68 -186 -245 -271 0
-68 -186 -246 -270 0
-68 -186 -248 -268 0
-68 -186 -250 -267 0
-68 -187 -237 -283 0
-68 -187 -238 -280 0
-68 -187 -239 -278 0
-68 -187 -240 -277 0
-68 -187 -242 -274 0
-68 -187 -243 -272 0
-68 -187 -244 -271 0
-68 -187 -246 -269 0
-68 -187 -247 -268 0
-68 -187 -249 -267 0
-68 -188 -233 -286 0
-68 -188 -234 -285 0
-68 -188 -235 -284 0
-68 -188 -236 -283 0
-68 -188 -246 -266 0
-68 -188 -247 -265 0
-68 -188 -248 -264 0
-68 -188 -249 -263 0
-68 -188 -250 -262 0
-68 -188 -251 -261 0
-68 -189 -232 -286 0
-68 -189 -234 -282 0
-68 -189 -235 -281 0
-68 -189 -236 -280 0
-68 -189 -243 -266 0
-68 -189 -244 -265 0
-68 -189 -245 -264 0
-68 -189 -249 -260 0
-68 -189 -250 -259 0
-68 -189 -251 -258 0
-68 -190 -232 -285 0
-68 -190 -233 -282 0
-68 -190 -235 -279 0
-68 -190 -236 -278 0
-68 -190 -242 -266 0
-68 -190 -244 -263 0
-68 -190 -245 -262 0
-68 -190 -247 -260 0
-68 -190 -248 -259 0
-68 -190 -251 -257 0
-68 -191 -232 -284 0
-68 -191 -233 -281 0
-68 -191 -234 -279 0
-68 -191 -236 -277 0
-68 -191 -242 -265 0
-68 -191 -243 -263 0
-68 -191 -245 -261 0
-68 -191 -246 -260 0
-68 -191 -248 -258 0
-68 -191 -250 -257 0
-68 -192 -232 -283 0
-68 -192 -233 -280 0
-68 -192 -234 -278 0
-68 -192 -235 -277 0
-68 -192 -242 -264 0
-68 -192 -243 -262 0
-68 -192 -244 -261 0
-68 -192 -246 -259 0
-68 -192 -247 -258 0
-68 -192 -249 -257 0
-68 -193 -231 -286 0
-68 -193 -234 -276 0
-68 -193 -235 -275 0
-68 -193 -236 -274 0
-68 -193 -239 -266 0
-68 -193 -240 -265 0
-68 -193 -241 -264 0
-68 -194 -231 -285 0
-68 -194 -233 -276 0
-68 -194 -235 -273 0
-68 -194 -236 -272 0
-68 -194 -238 -266 0
-68 -194 -240 -263 0
-68 -194 -241 -262 0
-68 -195 -231 -284 0
-68 -195 -233 -275 0
-68 -195 -234 -273 0
-68 -195 -236 -271 0
-68 -195 -238 -265 0
-68 -195 -239 -263 0
-68 -195 -241 -261 0
-68 -196 -231 -283 0
-68 -196 -233 -274 0
-68 -196 -234 -272 0
-68 -196 -235 -271 0
-68 -196 -238 -264 0
-68 -196 -239 -262 0
-68 -196 -240 -261 0
-68 -197 -231 -282 0
-68 -197 -232 -276 0
-68 -197 -235 -270 0
-68 -197 -236 -269 0
-68 -197 -237 -266 0
-68 -197 -240 -260 0
-68 -197 -241 -259 0
-68 -198 -231 -281 0
-68 -198 -232 -275 0
-68 -198 -234 -270 0
-68 -198 -236 -268 0
-68 -198 -237 -265 0
-68 -198 -239 -260 0
-68 -198 -241 -258 0
-68 -198 -250 -252 0
-68 -199 -231 -280 0
-68 -199 -232 -274 0
-68 -199 -234 -269 0
-68 -199 -235 -268 0
-68 -199 -237 -264 0
-68 -199 -239 -259 0
-68 -199 -240 -258 0
-68 -200 -232 -273 0
-68 -200 -233 -270 0
-68 -200 -236 -267 0
-68 -200 -237 -263 0
-68 -200 -238 -260 0
-68 -200 -241 -257 0
-68 -201 -231 -278 0
-68 -201 -232 -272 0
-68 -201 -233 -269 0
-68 -201 -235 -267 0
-68 -201 -237 -262 0
-68 -201 -238 -259 0
-68 -201 -240 -257 0
-68 -201 -244 -253 0
-68 -201 -247 -252 0
-68 -202 -231 -277 0
-68 -202 -232 -271 0
-68 -202 -233 -268 0
-68 -202 -234 -267 0
-68 -202 -237 -261 0
-68 -202 -238 -258 0
-68 -202 -239 -257 0
-68 -202 -243 -253 0
-68 -202 -246 -252 0
-69 -168 -267 -286 0
-69 -168 -268 -285 0
-69 -168 -269 -284 0
-69 -168 -270 -283 0
-69 -168 -271 -282 0
-69 -168 -272 -281 0
-69 -168 -273 -280 0
-69 -168 -274 -279 0
-69 -168 -275 -278 0
-69 -168 -276 -277 0
-69 -169 -257 -286 0
-69 -169 -258 -285 0
-69 -169 -259 -284 0
-69 -169 -260 -283 0
-69 -169 -261 -282 0
-69 -169 -262 -281 0
-69 -169 -263 -280 0
-69 -169 -264 -279 0
-69 -169 -265 -278 0
-69 -169 -266 -277 0
-69 -170 -253 -286 0
-69 -170 -255 -284 0
-69 -170 -256 -283 0
-69 -170 -261 -276 0
-69 -170 -262 -275 0
-69 -170 -263 -274 0
-69 -170 -264 -273 0
-69 -170 -265 -272 0
-69 -170 -266 -271 0
-69 -171 -252 -286 0
-69 -171 -254 -282 0
-69 -171 -255 -281 0
-69 -171 -256 -280 0
-69 -171 -258 -276 0
-69 -171 -259 -275 0
-69 -171 -260 -274 0
-69 -171 -264 -270 0
-69 -171 -265 -269 0
-69 -171 -266 -268 0
-69 -172 -252 -285 0
-69 -172 -253 -282 0
-69 -172 -255 -279 0
-69 -172 -257 -276 0
-69 -172 -259 -273 0
-69 -172 -260 -272 0
-69 -172 -262 -270 0
-69 -172 -263 -269 0
-69 -172 -266 -267 0
-69 -173 -252 -284 0
-69 -173 -253 -281 0
-69 -173 -254 -279 0
-69 -173 -256 -277 0
-69 -173 -257 -275 0
-69 -173 -258 -273 0
-69 -173 -260 -271 0
-69 -173 -261 -270 0
-69 -173 -263 -268 0
-69 -173 -265 -267 0
-69 -174 -253 -280 0
-69 -174 -255 -277 0
-69 -174 -257 -274 0
-69 -174 -258 -272 0
-69 -174 -259 -271 0
-69 -174 -261 -269 0
-69 -174 -262 -268 0
-69 -174 -264 -267 0
-69 -182 -221 -286 0
-69 -182 -222 -285 0
-69 -182 -223 -284 0
-69 -182 -224 -283 0
-69 -182 -225 -282 0
-69 -182 -226 -281 0
-69 -182 -227 -280 0
-69 -182 -228 -279 0
-69 -182 -229 -278 0
-69 -182 -230 -277 0
-69 -183 -217 -286 0
-69 -183 -218 -285 0
-69 -183 -219 -284 0
-69 -183 -220 -283 0
-69 -183 -225 -276 0
-69 -183 -226 -275 0
-69 -183 -227 -274 0
-69 -183 -228 -273 0
-69 -183 -229 -272 0
-69 -183 -230 -271 0
-69 -184 -216 -286 0
-69 -184 -218 -282 0
-69 -184 -219 -281 0
-69 -184 -220 -280 0
-69 -184 -223 -275 0
-69 -184 -224 -274 0
-69 -184 -228 -270 0
-69 -184 -229 -269 0
-69 -184 -230 -268 0
-69 -185 -216 -285 0
-69 -185 -217 -282 0
-69 -185 -219 -279 0
-69 -185 -220 -278 0
-69 -185 -221 -276 0
-69 -185 -223 -273 0
-69 -185 -224 -272 0
-69 -185 -226 -270 0
-69 -185 -227 -269 0
-69 -185 -230 -267 0
-69 -186 -216 -284 0
-69 -186 -217 -281 0
-69 -186 -218 -279 0
-69 -186 -220 -277 0
-69 -186 -221 -275 0
-69 -186 -222 -273 0
-69 -186 -224 -271 0
-69 -186 -225 -270 0
-69 -186 -227 -268 0
-69 -186 -229 -267 0
-69 -187 -216 -283 0
-69 -187 -217 -280 0
-69 -187 -218 -278 0
-69 -187 -219 -277 0
-69 -187 -221 -274 0
-69 -187 -222 -272 0
-69 -187 -223 -271 0
-69 -187 -225 -269 0
-69 -187 -226 -268 0
-69 -187 -228 -267 0
-69 -188 -212 -286 0
-69 -188 -213 -285 0
-69 -188 -214 -284 0
-69 -188 -215 -283 0
-69 -188 -225 -266 0
-69 -188 -226 -265 0
-69 -188 -227 -264 0
-69 -188 -228 -263 0
-69 -188 -229 -262 0
-69 -188 -230 -261 0
-69 -189 -211 -286 0
-69 -189 -213 -282 0
-69 -189 -214 -281 0
-69 -189 -215 -280 0
-69 -189 -222 -266 0
-69 -189 -223 -265 0
-69 -189 -224 -264 0
-69 -189 -228 -260 0
-69 -189 -229 -259 0
-69 -189 -230 -258 0
-69 -190 -211 -285 0
-69 -190 -212 -282 0
-69 -190 -214 -279 0
-69 -190 -215 -278 0
-69 -190 -221 -266 0
-69 -190 -223 -263 0
-69 -190 -224 -262 0
-69 -190 -226 -260 0
-69 -190 -227 -259 0
-69 -190 -230 -257 0
-69 -191 -211 -284 0
-69 -191 -212 -281 0
-69 -191 -213 -279 0
-69 -191 -215 -277 0
-69 -191 -221 -265 0
-69 -191 -222 -263 0
-69 -191 -224 -261 0
-69 -191 -225 -260 0
-69 -191 -227 -258 0
-69 -191 -229 -257 0
-69 -192 -211 -283 0
-69 -192 -212 -280 0
-69 -192 -213 -278 0
-69 -192 -214 -277 0
-69 -192 -221 -264 0
-69 -192 -222 -262 0
-69 -192 -223 -261 0
-69 -192 -225 -259 0
-69 -192 -226 -258 0
-69 -192 -228 -257 0
-69 -193 -210 -286 0
-69 -193 -213 -276 0
-69 -193 -214 -275 0
-69 -193 -215 -274 0
-69 -193 -218 -266 0
-69 -193 -219 -265 0
-69 -193 -220 -264 0
-69 -194 -210 -285 0
-69 -194 -212 -276 0
-69 -194 -214 -273 0
-69 -194 -215 -272 0
-69 -194 -217 -266 0
-69 -194 -219 -263 0
-69 -194 -220 -262 0
-69 -195 -210 -284 0
-69 -195 -212 -275 0
-69 -195 -213 -273 0
-69 -195 -215 -271 0
-69 -195 -217 -265 0
-69 -195 -218 -263 0
-69 -195 -220 -261 0
-69 -196 -210 -283 0
-69 -196 -212 -274 0
-69 -196 -213 -272 0
-69 -196 -214 -271 0
-69 -196 -217 -264 0
-69 -196 -218 -262 0
-69 -196 -219 -261 0
-69 -197 -210 -282 0
-69 -197 -211 -276 0
-69 -197 -214 -270 0
-69 -197 -215 -269 0
-69 -197 -216 -266 0
-69 -197 -219 -260 0
-69 -197 -220 -259 0
-69 -198 -210 -281 0
-69 -198 -211 -275 0
-69 -198 -213 -270 0
-69 -198 -215 -268 0
-69 -198 -216 -265 0
-69 -198 -218 -260 0
-69 -198 -220 -258 0
-69 -198 -222 -256 0
-69 -198 -229 -252 0
-69 -199 -210 -280 0
-69 -199 -211 -274 0
-69 -199 -213 -269 0
-69 -199 -214 -268 0
-69 -199 -216 -264 0
-69 -199 -218 -259 0
-69 -199 -219 -258 0
-69 -200 -211 -273 0
-69 -200 -212 -270 0
-69 -200 -215 -267 0
-69 -200 -216 -263 0
-69 -200 -217 -260 0
-69 -200 -220 -257 0
-69 -200 -227 -252 0
-69 -201 -211 -272 0
-69 -201 -212 -269 0
-69 -201 -214 -267 0
-69 -201 -216 -262 0
-69 -201 -217 -259 0
-69 -201 -219 -257 0
-69 -202 -210 -277 0
-69 -202 -211 -271 0
-69 -202 -212 -268 0
-69 -202 -213 -267 0
-69 -202 -216 -261 0
-69 -202 -217 -258 0
-69 -202 -218 -257 0
-69 -202 -225 -252 0
-79 -152 -208 -284 0
-79 -152 -226 -250 0
-79 -152 -227 -249 0
-79 -152 -228 -248 0
-79 -152 -229 -247 0
-79 -152 -230 -246 0
-79 -153 -207 -282 0
-79 -153 -222 -251 0
-79 -153 -224 -249 0
-79 -153 -228 -245 0
-79 -153 -229 -244 0
-79 -153 -230 -243 0
-79 -154 -209 -278 0
-79 -154 -223 -248 0
-79 -154 -224 -247 0
-79 -154 -227 -244 0
-79 -154 -230 -242 0
-79 -155 -209 -277 0
-79 -155 -221 -250 0
-79 -155 -224 -246 0
-79 -155 -225 -245 0
-79 -155 -227 -243 0
-79 -155 -229 -242 0
-79 -156 -205 -283 0
-79 -156 -206 -280 0
-79 -156 -207 -278 0
-79 -156 -208 -277 0
-79 -156 -221 -249 0
-79 -156 -222 -247 0
-79 -156 -223 -246 0
-79 -156 -228 -242 0
-79 -157 -207 -276 0
-79 -157 -208 -275 0
-79 -157 -209 -274 0
-79 -157 -218 -251 0
-79 -157 -219 -250 0
-79 -157 -220 -249 0
-79 -157 -228 -241 0
-79 -157 -229 -240 0
-79 -157 -230 -239 0
-79 -158 -206 -276 0
-79 -158 -208 -273 0
-79 -158 -209 -272 0
-79 -158 -217 -251 0
-79 -158 -219 -248 0
-79 -158 -220 -247 0
-79 -158 -226 -241 0
-79 -158 -227 -240 0
-79 -158 -230 -238 0
-79 -159 -206 -275 0
-79 -159 -207 -273 0
-79 -159 -209 -271 0
-79 -159 -217 -250 0
-79 -159 -218 -248 0
-79 -159 -220 -246 0
-79 -159 -227 -239 0
-79 -159 -229 -238 0
-79 -160 -206 -274 0
-79 -160 -207 -272 0
-79 -160 -208 -271 0
-79 -160 -217 -249 0
-79 -160 -218 -247 0
-79 -160 -219 -246 0
-79 -160 -225 -240 0
-79 -160 -226 -239 0
-79 -160 -228 -238 0
-79 -161 -205 -276 0
-79 -161 -208 -270 0
-79 -161 -209 -269 0
-79 -161 -216 -251 0
-79 -161 -219 -245 0
-79 -161 -220 -244 0
-79 -161 -223 -241 0
-79 -161 -224 -240 0
-79 -161 -230 -237 0
-79 -162 -205 -275 0
-79 -162 -207 -270 0
-79 -162 -209 -268 0
-79 -162 -216 -250 0
-79 -162 -218 -245 0
-79 -162 -220 -243 0
-79 -162 -222 -241 0
-79 -162 -224 -239 0
-79 -162 -229 -237 0
-79 -163 -205 -274 0
-79 -163 -207 -269 0
-79 -163 -208 -268 0
-79 -163 -216 -249 0
-79 -163 -218 -244 0
-79 -163 -219 -243 0
-79 -163 -222 -240 0
-79 -163 -223 -239 0
-79 -163 -228 -237 0
-79 -164 -205 -273 0
-79 -164 -206 -270 0
-79 -164 -209 -267 0
-79 -164 -216 -248 0
-79 -164 -217 -245 0
-79 -164 -220 -242 0
-79 -164 -221 -241 0
-79 -164 -224 -238 0
-79 -164 -227 -237 0
-79 -165 -205 -272 0
-79 -165 -206 -269 0
-79 -165 -208 -267 0
-79 -165 -216 -247 0
-79 -165 -217 -244 0
-79 -165 -219 -242 0
-79 -165 -221 -240 0
-79 -165 -223 -238 0
-79 -165 -226 -237 0
-79 -166 -205 -271 0
-79 -166 -206 -268 0
-79 -166 -207 -267 0
-79 -166 -216 -246 0
-79 -166 -217 -243 0
-79 -166 -218 -242 0
-79 -166 -221 -239 0
-79 -166 -222 -238 0
-79 -166 -225 -237 0
-80 -147 -206 -286 0
-80 -147 -207 -285 0
-80 -147 -209 -283 0
-80 -147 -226 -250 0
-80 -147 -227 -249 0
-80 -147 -228 -248 0
-80 -147 -229 -247 0
-80 -147 -230 -246 0
-80 -148 -205 -286 0
-80 -148 -207 -282 0
-80 -148 -208 -281 0
-80 -148 -209 -280 0
-80 -148 -222 -251 0
-80 -148 -223 -250 0
-80 -148 -224 -249 0
-80 -148 -228 -245 0
-80 -148 -229 -244 0
-80 -148 -230 -243 0
-80 -149 -206 -282 0
-80 -149 -208 -279 0
-80 -149 -209 -278 0
-80 -149 -221 -251 0
-80 -149 -223 -248 0
-80 -149 -224 -247 0
-80 -149 -227 -244 0
-80 -149 -230 -242 0
-80 -150 -206 -281 0
-80 -150 -207 -279 0
-80 -150 -209 -277 0
-80 -150 -221 -250 0
-80 -150 -224 -246 0
-80 -150 -227 -243 0
-80 -151 -205 -283 0
-80 -151 -207 -278 0
-80 -151 -208 -277 0
-80 -151 -221 -249 0
-80 -151 -222 -247 0
-80 -151 -223 -246 0
-80 -151 -225 -244 0
-80 -151 -226 -243 0
-80 -151 -228 -242 0
-80 -157 -207 -266 0
-80 -157 -208 -265 0
-80 -157 -209 -264 0
-80 -157 -214 -250 0
-80 -157 -215 -249 0
-80 -157 -228 -236 0
-80 -157 -229 -235 0
-80 -157 -230 -234 0
-80 -158 -206 -266 0
-80 -158 -208 -263 0
-80 -158 -209 -262 0
-80 -158 -212 -251 0
-80 -158 -215 -247 0
-80 -158 -226 -236 0
-80 -158 -227 -235 0
-80 -158 -230 -233 0
-80 -159 -206 -265 0
-80 -159 -207 -263 0
-80 -159 -209 -261 0
-80 -159 -212 -250 0
-80 -159 -215 -246 0
-80 -159 -227 -234 0
-80 -159 -229 -233 0
-80 -160 -206 -264 0
-80 -160 -207 -262 0
-80 -160 -208 -261 0
-80 -160 -212 -249 0
-80 -160 -225 -235 0
-80 -161 -205 -266 0
-80 -161 -208 -260 0
-80 -161 -209 -259 0
-80 -161 -211 -251 0
-80 -161 -214 -245 0
-80 -161 -215 -244 0
-80 -161 -223 -236 0
-80 -161 -224 -235 0
-80 -161 -230 -232 0
-80 -162 -205 -265 0
-80 -162 -207 -260 0
-80 -162 -209 -258 0
-80 -162 -211 -250 0
-80 -162 -215 -243 0
-80 -162 -222 -236 0
-80 -162 -224 -234 0
-80 -162 -229 -232 0
-80 -163 -205 -264 0
-80 -163 -207 -259 0
-80 -163 -208 -258 0
-80 -163 -211 -249 0
-80 -163 -213 -244 0
-80 -163 -214 -243 0
-80 -163 -222 -235 0
-80 -163 -223 -234 0
-80 -163 -228 -232 0
-80 -164 -205 -263 0
-80 -164 -206 -260 0
-80 -164 -209 -257 0
-80 -164 -211 -248 0
-80 -164 -212 -245 0
-80 -164 -215 -242 0
-80 -164 -221 -236 0
-80 -164 -224 -233 0
-80 -164 -227 -232 0
-80 -165 -205 -262 0
-80 -165 -206 -259 0
-80 -165 -208 -257 0
-80 -165 -211 -247 0
-80 -165 -212 -244 0
-80 -165 -214 -242 0
-80 -165 -221 -235 0
-80 -165 -223 -233 0
-80 -165 -226 -232 0
-80 -166 -205 -261 0
-80 -166 -206 -258 0
-80 -166 -207 -257 0
-80 -166 -211 -246 0
-80 -166 -212 -243 0
-80 -166 -213 -242 0
-80 -166 -221 -234 0
-80 -166 -222 -233 0
-80 -166 -225 -232 0
-87 -152 -179 -285 0
-87 -152 -181 -283 0
-87 -152 -198 -250 0
-87 -152 -199 -249 0
-87 -152 -201 -247 0
-87 -152 -202 -246 0
-87 -153 -177 -286 0
-87 -153 -179 -282 0
-87 -153 -195 -250 0
-87 -153 -196 -249 0
-87 -153 -200 -245 0
-87 -153 -202 -243 0
-87 -154 -181 -278 0
-87 -154 -193 -251 0
-87 -154 -196 -247 0
-87 -154 -198 -245 0
-87 -154 -199 -244 0
-87 -154 -202 -242 0
-87 -155 -177 -284 0
-87 -155 -178 -281 0
-87 -155 -179 -279 0
-87 -155 -193 -250 0
-87 -155 -194 -248 0
-87 -155 -196 -246 0
-87 -155 -197 -245 0
-87 -155 -199 -243 0
-87 -155 -201 -242 0
-87 -156 -178 -280 0
-87 -156 -179 -278 0
-87 -156 -193 -249 0
-87 -156 -194 -247 0
-87 -156 -195 -246 0
-87 -157 -179 -276 0
-87 -157 -180 -275 0
-87 -157 -181 -274 0
-87 -157 -190 -251 0
-87 -157 -191 -250 0
-87 -157 -192 -249 0
-87 -157 -201 -240 0
-87 -158 -178 -276 0
-87 -158 -180 -273 0
-87 -158 -181 -272 0
-87 -158 -189 -251 0
-87 -158 -192 -247 0
-87 -158 -202 -238 0
-87 -159 -178 -275 0
-87 -159 -179 -273 0
-87 -159 -181 -271 0
-87 -159 -189 -250 0
-87 -159 -190 -248 0
-87 -159 -192 -246 0
-87 -159 -199 -239 0
-87 -159 -201 -238 0
-87 -160 -178 -274 0
-87 -160 -179 -272 0
-87 -160 -180 -271 0
-87 -160 -189 -249 0
-87 -160 -191 -246 0
-87 -160 -198 -239 0
-87 -160 -200 -238 0
-87 -161 -177 -276 0
-87 -161 -180 -270 0
-87 -161 -181 -269 0
-87 -161 -188 -251 0
-87 -161 -191 -245 0
-87 -161 -192 -244 0
-87 -161 -202 -237 0
-87 -162 -177 -275 0
-87 -162 -179 -270 0
-87 -162 -181 -268 0
-87 -162 -188 -250 0
-87 -162 -192 -243 0
-87 -162 -194 -241 0
-87 -162 -201 -237 0
-87 -163 -177 -274 0
-87 -163 -179 -269 0
-87 -163 -180 -268 0
-87 -163 -188 -249 0
-87 -163 -190 -244 0
-87 -163 -191 -243 0
-87 -164 -177 -273 0
-87 -164 -178 -270 0
-87 -164 -181 -267 0
-87 -164 -189 -245 0
-87 -164 -192 -242 0
-87 -165 -177 -272 0
-87 -165 -178 -269 0
-87 -165 -180 -267 0
-87 -165 -188 -247 0
-87 -165 -189 -244 0
-87 -165 -191 -242 0
-87 -165 -193 -240 0
-87 -165 -198 -237 0
-87 -166 -177 -271 0
-87 -166 -178 -268 0
-87 -166 -179 -267 0
-87 -166 -188 -246 0
-87 -166 -189 -243 0
-87 -166 -190 -242 0
-87 -166 -194 -238 0
-88 -147 -178 -286 0
-88 -147 -179 -285 0
-88 -147 -197 -251 0
-88 -147 -198 -250 0
-88 -147 -200 -248 0
-88 -147 -202 -246 0
-88 -148 -177 -286 0
-88 -148 -179 -282 0
-88 -148 -180 -281 0
-88 -148 -181 -280 0
-88 -148 -194 -251 0
-88 -148 -195 -250 0
-88 -148 -196 -249 0
-88 -148 -200 -245 0
-88 -148 -201 -244 0
-88 -148 -202 -243 0
-88 -149 -178 -282 0
-88 -149 -180 -279 0
-88 -149 -181 -278 0
-88 -149 -193 -251 0
-88 -149 -195 -248 0
-88 -149 -196 -247 0
-88 -149 -198 -245 0
-88 -149 -199 -244 0
-88 -149 -202 -242 0
-88 -150 -179 -279 0
-88 -150 -181 -277 0
-88 -150 -193 -250 0
-88 -150 -194 -248 0
-88 -150 -196 -246 0
-88 -150 -197 -245 0
-88 -150 -199 -243 0
-88 -150 -201 -242 0
-88 -151 -177 -283 0
-88 -151 -178 -280 0
-88 -151 -179 -278 0
-88 -151 -180 -277 0
-88 -151 -193 -249 0
-88 -151 -194 -247 0
-88 -151 -195 -246 0
-88 -151 -197 -244 0
-88 -151 -198 -243 0
-88 -151 -200 -242 0
-88 -157 -179 -266 0
-88 -157 -180 -265 0
-88 -157 -181 -264 0
-88 -157 -185 -251 0
-88 -157 -186 -250 0
-88 -157 -187 -249 0
-88 -157 -200 -236 0
-88 -157 -201 -235 0
-88 -157 -202 -234 0
-88 -158 -178 -266 0
-88 -158 -180 -263 0
-88 -158 -181 -262 0
-88 -158 -184 -251 0
-88 -158 -186 -248 0
-88 -158 -187 -247 0
-88 -158 -198 -236 0
-88 -158 -199 -235 0
-88 -158 -202 -233 0
-88 -159 -178 -265 0
-88 -159 -179 -263 0
-88 -159 -181 -261 0
-88 -159 -184 -250 0
-88 -159 -185 -248 0
-88 -159 -187 -246 0
-88 -159 -197 -236 0
-88 -159 -199 -234 0
-88 -159 -201 -233 0
-88 -160 -178 -264 0
-88 -160 -179 -262 0
-88 -160 -180 -261 0
-88 -160 -184 -249 0
-88 -160 -185 -247 0
-88 -160 -186 -246 0
-88 -160 -197 -235 0
-88 -160 -198 -234 0
-88 -160 -200 -233 0
-88 -161 -177 -266 0
-88 -161 -180 -260 0
-88 -161 -181 -259 0
-88 -161 -183 -251 0
-88 -161 -186 -245 0
-88 -161 -187 -244 0
-88 -161 -196 -235 0
-88 -161 -202 -232 0
-88 -162 -177 -265 0
-88 -162 -179 -260 0
-88 -162 -181 -258 0
-88 -162 -183 -250 0
-88 -162 -185 -245 0
-88 -162 -187 -243 0
-88 -162 -194 -236 0
-88 -162 -196 -234 0
-88 -162 -201 -232 0
-88 -163 -177 -264 0
-88 -163 -179 -259 0
-88 -163 -180 -258 0
-88 -163 -183 -249 0
-88 -163 -185 -244 0
-88 -163 -186 -243 0
-88 -163 -194 -235 0
-88 -163 -195 -234 0
-88 -163 -200 -232 0
-88 -164 -177 -263 0
-88 -164 -178 -260 0
-88 -164 -181 -257 0
-88 -164 -183 -248 0
-88 -164 -184 -245 0
-88 -164 -187 -242 0
-88 -164 -193 -236 0
-88 -164 -196 -233 0
-88 -164 -199 -232 0
-88 -165 -177 -262 0
-88 -165 -178 -259 0
-88 -165 -180 -257 0
-88 -165 -183 -247 0
-88 -165 -184 -244 0
-88 -165 -186 -242 0
-88 -165 -193 -235 0
-88 -165 -195 -233 0
-88 -165 -198 -232 0
-88 -166 -177 -261 0
-88 -166 -178 -258 0
-88 -166 -179 -257 0
-88 -166 -183 -246 0
-88 -166 -184 -243 0
-88 -166 -185 -242 0
-88 -166 -193 -234 0
-88 -166 -194 -233 0
-88 -166 -197 -232 0
-94 -152 -173 -284 0
-94 -152 -198 -229 0
-94 -152 -200 -227 0
-94 -152 -201 -226 0
-94 -152 -202 -225 0
-94 -153 -170 -286 0
-94 -153 -195 -229 0
-94 -153 -200 -224 0
-94 -154 -193 -230 0
-94 -154 -195 -227 0
-94 -154 -196 -226 0
-94 -154 -198 -224 0
-94 -154 -199 -223 0
-94 -154 -202 -221 0
-94 -155 -171 -281 0
-94 -155 -193 -229 0
-94 -155 -194 -227 0
-94 -156 -193 -228 0
-94 -156 -194 -226 0
-94 -156 -195 -225 0
-94 -156 -200 -221 0
-94 -157 -172 -276 0
-94 -157 -173 -275 0
-94 -157 -174 -274 0
-94 -157 -190 -230 0
-94 -157 -191 -229 0
-94 -157 -192 -228 0
-94 -157 -200 -220 0
-94 -157 -201 -219 0
-94 -157 -202 -218 0
-94 -158 -171 -276 0
-94 -158 -173 -273 0
-94 -158 -174 -272 0
-94 -158 -189 -230 0
-94 -158 -191 -227 0
-94 -158 -192 -226 0
-94 -158 -198 -220 0
-94 -158 -199 -219 0
-94 -158 -202 -217 0
-94 -159 -171 -275 0
-94 -159 -172 -273 0
-94 -159 -174 -271 0
-94 -159 -189 -229 0
-94 -159 -190 -227 0
-94 -159 -192 -225 0
-94 -159 -197 -220 0
-94 -159 -199 -218 0
-94 -159 -201 -217 0
-94 -160 -171 -274 0
-94 -160 -172 -272 0
-94 -160 -173 -271 0
-94 -160 -189 -228 0
-94 -160 -190 -226 0
-94 -160 -191 -225 0
-94 -160 -197 -219 0
-94 -160 -198 -218 0
-94 -160 -200 -217 0
-94 -161 -170 -276 0
-94 -161 -173 -270 0
-94 -161 -174 -269 0
-94 -161 -188 -230 0
-94 -161 -191 -224 0
-94 -161 -192 -223 0
-94 -161 -195 -220 0
-94 -161 -196 -219 0
-94 -161 -202 -216 0
-94 -162 -170 -275 0
-94 -162 -172 -270 0
-94 -162 -174 -268 0
-94 -162 -188 -229 0
-94 -162 -190 -224 0
-94 -162 -192 -222 0
-94 -162 -194 -220 0
-94 -162 -196 -218 0
-94 -162 -201 -216 0
-94 -163 -170 -274 0
-94 -163 -172 -269 0
-94 -163 -173 -268 0
-94 -163 -188 -228 0
-94 -163 -190 -223 0
-94 -163 -191 -222 0
-94 -163 -194 -219 0
-94 -163 -195 -218 0
-94 -163 -200 -216 0
-94 -164 -170 -273 0
-94 -164 -171 -270 0
-94 -164 -174 -267 0
-94 -164 -188 -227 0
-94 -164 -189 -224 0
-94 -164 -192 -221 0
-94 -164 -193 -220 0
-94 -164 -196 -217 0
-94 -164 -199 -216 0
-94 -165 -170 -272 0
-94 -165 -171 -269 0
-94 -165 -173 -267 0
-94 -165 -188 -226 0
-94 -165 -189 -223 0
-94 -165 -191 -221 0
-94 -165 -193 -219 0
-94 -165 -195 -217 0
-94 -165 -198 -216 0
-94 -166 -170 -271 0
-94 -166 -171 -268 0
-94 -166 -172 -267 0
-94 -166 -188 -225 0
-94 -166 -189 -222 0
-94 -166 -190 -221 0
-94 -166 -193 -218 0
-94 -166 -194 -217 0
-94 -166 -197 -216 0
-95 -147 -171 -286 0
-95 -147 -172 -285 0
-95 -147 -197 -230 0
-95 -147 -198 -229 0
-95 -147 -199 -228 0
-95 -147 -200 -227 0
-95 -147 -201 -226 0
-95 -147 -202 -225 0
-95 -148 -170 -286 0
-95 -148 -172 -282 0
-95 -148 -173 -281 0
-95 -148 -194 -230 0
-95 -148 -195 -229 0
-95 -148 -196 -228 0
-95 -148 -200 -224 0
-95 -148 -201 -223 0
-95 -148 -202 -222 0
-95 -149 -173 -279 0
-95 -149 -174 -278 0
-95 -149 -193 -230 0
-95 -149 -195 -227 0
-95 -149 -198 -224 0
-95 -149 -199 -223 0
-95 -149 -202 -221 0
-95 -150 -171 -281 0
-95 -150 -174 -277 0
-95 -150 -193 -229 0
-95 -150 -194 -227 0
-95 -150 -196 -225 0
-95 -150 -197 -224 0
-95 -150 -199 -222 0
-95 -150 -201 -221 0
-95 -151 -170 -283 0
-95 -151 -193 -228 0
-95 -151 -194 -226 0
-95 -151 -195 -225 0
-95 -151 -198 -222 0
-95 -151 -200 -221 0
-95 -157 -172 -266 0
-95 -157 -173 -265 0
-95 -157 -174 -264 0
-95 -157 -185 -230 0
-95 -157 -186 -229 0
-95 -157 -187 -228 0
-95 -157 -200 -215 0
-95 -157 -201 -214 0
-95 -157 -202 -213 0
-95 -158 -171 -266 0
-95 -158 -173 -263 0
-95 -158 -174 -262 0
-95 -158 -184 -230 0
-95 -158 -186 -227 0
-95 -158 -187 -226 0
-95 -158 -198 -215 0
-95 -158 -199 -214 0
-95 -159 -171 -265 0
-95 -159 -172 -263 0
-95 -159 -174 -261 0
-95 -159 -184 -229 0
-95 -159 -185 -227 0
-95 -159 -187 -225 0
-95 -159 -197 -215 0
-95 -159 -199 -213 0
-95 -159 -201 -212 0
-95 -160 -171 -264 0
-95 -160 -172 -262 0
-95 -160 -173 -261 0
-95 -160 -184 -228 0
-95 -160 -185 -226 0
-95 -160 -186 -225 0
-95 -160 -197 -214 0
-95 -160 -198 -213 0
-95 -160 -200 -212 0
-95 -161 -170 -266 0
-95 -161 -173 -260 0
-95 -161 -174 -259 0
-95 -161 -183 -230 0
-95 -161 -186 -224 0
-95 -161 -187 -223 0
-95 -161 -195 -215 0
-95 -161 -196 -214 0
-95 -161 -202 -211 0
-95 -162 -170 -265 0
-95 -162 -172 -260 0
-95 -162 -174 -258 0
-95 -162 -183 -229 0
-95 -162 -185 -224 0
-95 -162 -187 -222 0
-95 -162 -194 -215 0
-95 -162 -196 -213 0
-95 -163 -170 -264 0
-95 -163 -172 -259 0
-95 -163 -173 -258 0
-95 -163 -183 -228 0
-95 -163 -185 -223 0
-95 -163 -186 -222 0
-95 -163 -194 -214 0
-95 -163 -195 -213 0
-95 -163 -200 -211 0
-95 -164 -168 -279 0
-95 -164 -170 -263 0
-95 -164 -171 -260 0
-95 -164 -174 -257 0
-95 -164 -183 -227 0
-95 -164 -184 -224 0
-95 -164 -187 -221 0
-95 -164 -193 -215 0
-95 -164 -196 -212 0
-95 -164 -199 -211 0
-95 -165 -170 -262 0
-95 -165 -171 -259 0
-95 -165 -173 -257 0
-95 -165 -183 -226 0
-95 -165 -184 -223 0
-95 -165 -186 -221 0
-95 -165 -193 -214 0
-95 -165 -195 -212 0
-95 -165 -198 -211 0
-95 -166 -170 -261 0
-95 -166 -171 -258 0
-95 -166 -172 -257 0
-95 -166 -183 -225 0
-95 -166 -184 -222 0
-95 -166 -185 -221 0
-95 -166 -193 -213 0
-95 -166 -197 -211 0
-101 -157 -167 -286 0
-101 -157 -179 -230 0
-101 -157 -202 -207 0
-101 -158 -167 -285 0
-101 -158 -171 -251 0
-101 -158 -173 -248 0
-101 -158 -174 -247 0
-101 -158 -181 -226 0
-101 -158 -199 -208 0
-101 -159 -167 -284 0
-101 -159 -171 -250 0
-101 -159 -179 -227 0
-101 -160 -167 -283 0
-101 -160 -171 -249 0
-101 -160 -172 -247 0
-101 -160 -179 -226 0
-101 -161 -167 -282 0
-101 -161 -174 -244 0
-101 -161 -202 -205 0
-101 -162 -167 -281 0
-101 -162 -174 -243 0
-101 -162 -179 -224 0
-101 -163 -167 -280 0
-101 -163 -173 -243 0
-101 -163 -179 -223 0
-101 -164 -167 -279 0
-101 -164 -196 -206 0
-101 -165 -167 -278 0
-101 -165 -171 -244 0
-101 -165 -198 -205 0
-101 -166 -167 -277 0
-101 -166 -171 -243 0
-101 -166 -178 -222 0
-101 -166 -179 -221 0
-101 -166 -193 -207 0
-101 -166 -194 -206 0
-101 -166 -197 -205 0
-112 -146 -167 -286 0
-112 -146 -172 -251 0
-112 -146 -173 -250 0
-112 -146 -174 -249 0
-112 -146 -179 -230 0
-112 -146 -180 -229 0
-112 -146 -181 -228 0
-112 -146 -200 -209 0
-112 -146 -201 -208 0
-112 -146 -202 -207 0
-112 -149 -167 -276 0
-112 -149 -169 -251 0
-112 -149 -173 -241 0
-112 -149 -174 -240 0
-112 -149 -176 -230 0
-112 -149 -180 -220 0
-112 -149 -181 -219 0
-112 -149 -191 -209 0
-112 -149 -192 -208 0
-112 -149 -202 -204 0
-112 -150 -167 -275 0
-112 -150 -169 -250 0
-112 -150 -172 -241 0
-112 -150 -174 -239 0
-112 -150 -176 -229 0
-112 -150 -179 -220 0
-112 -150 -181 -218 0
-112 -150 -190 -209 0
-112 -150 -192 -207 0
-112 -150 -201 -204 0
-112 -151 -167 -274 0
-112 -151 -169 -249 0
-112 -151 -172 -240 0
-112 -151 -173 -239 0
-112 -151 -176 -228 0
-112 -151 -179 -219 0
-112 -151 -180 -218 0
-112 -151 -190 -208 0
-112 -151 -191 -207 0
-112 -151 -200 -204 0
-112 -154 -167 -266 0
-112 -154 -168 -251 0
-112 -154 -173 -236 0
-112 -154 -174 -235 0
-112 -154 -175 -230 0
-112 -154 -180 -215 0
-112 -154 -181 -214 0
-112 -154 -186 -209 0
-112 -154 -187 -208 0
-112 -154 -202 -203 0
-112 -155 -167 -265 0
-112 -155 -168 -250 0
-112 -155 -172 -236 0
-112 -155 -174 -234 0
-112 -155 -175 -229 0
-112 -155 -179 -215 0
-112 -155 -181 -213 0
-112 -155 -185 -209 0
-112 -155 -187 -207 0
-112 -155 -201 -203 0
-112 -156 -167 -264 0
-112 -156 -168 -249 0
-112 -156 -172 -235 0
-112 -156 -173 -234 0
-112 -156 -175 -228 0
-112 -156 -179 -214 0
-112 -156 -180 -213 0
-112 -156 -185 -208 0
-112 -156 -186 -207 0
-112 -156 -200 -203 0
-112 -164 -167 -256 0
-112 -164 -168 -241 0
-112 -164 -169 -236 0
-112 -164 -174 -231 0
-112 -164 -175 -220 0
-112 -164 -176 -215 0
-112 -164 -181 -210 0
-112 -164 -182 -209 0
-112 -164 -187 -204 0
-112 -164 -192 -203 0
-112 -165 -167 -255 0
-112 -165 -168 -240 0
-112 -165 -169 -235 0
-112 -165 -173 -231 0
-112 -165 -175 -219 0
-112 -165 -176 -214 0
-112 -165 -180 -210 0
-112 -165 -182 -208 0
-112 -165 -186 -204 0
-112 -165 -191 -203 0
-112 -166 -167 -254 0
-112 -166 -168 -239 0
-112 -166 -169 -234 0
-112 -166 -172 -231 0
-112 -166 -175 -218 0
-112 -166 -176 -213 0
-112 -166 -179 -210 0
-112 -166 -182 -207 0
-112 -166 -185 -204 0
-112 -166 -190 -203 0
-113 -146 -167 -285 0
-113 -146 -171 -251 0
-113 -146 -173 -248 0
-113 -146 -174 -247 0
-113 -146 -178 -230 0
-113 -146 -180 -227 0
-113 -146 -181 -226 0
-113 -146 -198 -209 0
-113 -146 -199 -208 0
-113 -146 -202 -206 0
-113 -148 -167 -276 0
-113 -148 -169 -251 0
-113 -148 -173 -241 0
-113 -148 -174 -240 0
-113 -148 -176 -230 0
-113 -148 -180 -220 0
-113 -148 -181 -219 0
-113 -148 -191 -209 0
-113 -148 -192 -208 0
-113 -148 -202 -204 0
-113 -150 -167 -273 0
-113 -150 -169 -248 0
-113 -150 -171 -241 0
-113 -150 -174 -238 0
-113 -150 -176 -227 0
-113 -150 -178 -220 0
-113 -150 -181 -217 0
-113 -150 -189 -209 0
-113 -150 -192 -206 0
-113 -150 -199 -204 0
-113 -151 -167 -272 0
-113 -151 -169 -247 0
-113 -151 -171 -240 0
-113 -151 -173 -238 0
-113 -151 -176 -226 0
-113 -151 -178 -219 0
-113 -151 -180 -217 0
-113 -151 -189 -208 0
-113 -151 -191 -206 0
-113 -151 -198 -204 0
-113 -153 -167 -266 0
-113 -153 -168 -251 0
-113 -153 -173 -236 0
-113 -153 -174 -235 0
-113 -153 -175 -230 0
-113 -153 -180 -215 0
-113 -153 -181 -214 0
-113 -153 -186 -209 0
-113 -153 -187 -208 0
-113 -153 -202 -203 0
-113 -155 -167 -263 0
-113 -155 -168 -248 0
-113 -155 -171 -236 0
-113 -155 -174 -233 0
-113 -155 -175 -227 0
-113 -155 -178 -215 0
-113 -155 -181 -212 0
-113 -155 -184 -209 0
-113 -155 -187 -206 0
-113 -155 -199 -203 0
-113 -156 -167 -262 0
-113 -156 -168 -247 0
-113 -156 -171 -235 0
-113 -156 -173 -233 0
-113 -156 -175 -226 0
-113 -156 -178 -214 0
-113 -156 -180 -212 0
-113 -156 -184 -208 0
-113 -156 -186 -206 0
-113 -156 -198 -203 0
-113 -162 -167 -256 0
-113 -162 -168 -241 0
-113 -162 -169 -236 0
-113 -162 -174 -231 0
-113 -162 -175 -220 0
-113 -162 -176 -215 0
-113 -162 -181 -210 0
-113 -162 -182 -209 0
-113 -162 -187 -204 0
-113 -162 -192 -203 0
-113 -163 -167 -255 0
-113 -163 -168 -240 0
-113 -163 -169 -235 0
-113 -163 -173 -231 0
-113 -163 -175 -219 0
-113 -163 -176 -214 0
-113 -163 -180 -210 0
-113 -163 -182 -208 0
-113 -163 -186 -204 0
-113 -163 -191 -203 0
-113 -166 -167 -253 0
-113 -166 -168 -238 0
-113 -166 -169 -233 0
-113 -166 -171 -231 0
-113 -166 -175 -217 0
-113 -166 -176 -212 0
-113 -166 -178 -210 0
-113 -166 -182 -206 0
-113 -166 -184 -204 0
-113 -166 -189 -203 0
-114 -146 -167 -284 0
-114 -146 -171 -250 0
-114 -146 -172 -248 0
-114 -146 -174 -246 0
-114 -146 -178 -229 0
-114 -146 -179 -227 0
-114 -146 -181 -225 0
-114 -146 -197 -209 0
-114 -146 -199 -207 0
-114 -146 -201 -206 0
-114 -148 -167 -275 0
-114 -148 -169 -250 0
-114 -148 -172 -241 0
-114 -148 -174 -239 0
-114 -148 -176 -229 0
-114 -148 -179 -220 0
-114 -148 -181 -218 0
-114 -148 -190 -209 0
-114 -148 -192 -207 0
-114 -148 -201 -204 0
-114 -149 -167 -273 0
-114 -149 -169 -248 0
-114 -149 -171 -241 0
-114 -149 -174 -238 0
-114 -149 -176 -227 0
-114 -149 -178 -220 0
-114 -149 -181 -217 0
-114 -149 -189 -209 0
-114 -149 -192 -206 0
-114 -149 -199 -204 0
-114 -151 -167 -271 0
-114 -151 -169 -246 0
-114 -151 -171 -239 0
-114 -151 -172 -238 0
-114 -151 -176 -225 0
-114 -151 -178 -218 0
-114 -151 -179 -217 0
-114 -151 -189 -207 0
-114 -151 -190 -206 0
-114 -151 -197 -204 0
-114 -153 -167 -265 0
-114 -153 -168 -250 0
-114 -153 -172 -236 0
-114 -153 -174 -234 0
-114 -153 -175 -229 0
-114 -153 -179 -215 0
-114 -153 -181 -213 0
-114 -153 -185 -209 0
-114 -153 -187 -207 0
-114 -153 -201 -203 0
-114 -154 -167 -263 0
-114 -154 -168 -248 0
-114 -154 -171 -236 0
-114 -154 -174 -233 0
-114 -154 -175 -227 0
-114 -154 -178 -215 0
-114 -154 -181 -212 0
-114 -154 -184 -209 0
-114 -154 -187 -206 0
-114 -154 -199 -203 0
-114 -156 -167 -261 0
-114 -156 -168 -246 0
-114 -156 -171 -234 0
-114 -156 -172 -233 0
-114 -156 -175 -225 0
-114 -156 -178 -213 0
-114 -156 -179 -212 0
-114 -156 -184 -207 0
-114 -156 -185 -206 0
-114 -156 -197 -203 0
-114 -161 -167 -256 0
-114 -161 -168 -241 0
-114 -161 -169 -236 0
-114 -161 -174 -231 0
-114 -161 -175 -220 0
-114 -161 -176 -215 0
-114 -161 -181 -210 0
-114 -161 -182 -209 0
-114 -161 -187 -204 0
-114 -161 -192 -203 0
-114 -163 -167 -254 0
-114 -163 -168 -239 0
-114 -163 -169 -234 0
-114 -163 -172 -231 0
-114 -163 -175 -218 0
-114 -163 -176 -213 0
-114 -163 -179 -210 0
-114 -163 -182 -207 0
-114 -163 -185 -204 0
-114 -163 -190 -203 0
-114 -165 -167 -253 0
-114 -165 -168 -238 0
-114 -165 -169 -233 0
-114 -165 -171 -231 0
-114 -165 -175 -217 0
-114 -165 -176 -212 0
-114 -165 -178 -210 0
-114 -165 -182 -206 0
-114 -165 -184 -204 0
-114 -165 -189 -203 0
-115 -146 -167 -283 0
-115 -146 -171 -249 0
-115 -146 -172 -247 0
-115 -146 -173 -246 0
-115 -146 -178 -228 0
-115 -146 -179 -226 0
-115 -146 -180 -225 0
-115 -146 -197 -208 0
-115 -146 -198 -207 0
-115 -146 -200 -206 0
-115 -148 -167 -274 0
-115 -148 -169 -249 0
-115 -148 -172 -240 0
-115 -148 -173 -239 0
-115 -148 -176 -228 0
-115 -148 -179 -219 0
-115 -148 -180 -218 0
-115 -148 -190 -208 0
-115 -148 -191 -207 0
-115 -148 -200 -204 0
-115 -149 -167 -272 0
-115 -149 -169 -247 0
-115 -149 -171 -240 0
-115 -149 -173 -238 0
-115 -149 -176 -226 0
-115 -149 -178 -219 0
-115 -149 -180 -217 0
-115 -149 -189 -208 0
-115 -149 -191 -206 0
-115 -149 -198 -204 0
-115 -150 -167 -271 0
-115 -150 -169 -246 0
-115 -150 -171 -239 0
-115 -150 -172 -238 0
-115 -150 -176 -225 0
-115 -150 -178 -218 0
-115 -150 -179 -217 0
-115 -150 -189 -207 0
-115 -150 -190 -206 0
-115 -150 -197 -204 0
-115 -153 -167 -264 0
-115 -153 -168 -249 0
-115 -153 -172 -235 0
-115 -153 -173 -234 0
-115 -153 -175 -228 0
-115 -153 -179 -214 0
-115 -153 -180 -213 0
-115 -153 -185 -208 0
-115 -153 -186 -207 0
-115 -153 -200 -203 0
-115 -154 -167 -262 0
-115 -154 -168 -247 0
-115 -154 -171 -235 0
-115 -154 -173 -233 0
-115 -154 -175 -226 0
-115 -154 -178 -214 0
-115 -154 -180 -212 0
-115 -154 -184 -208 0
-115 -154 -186 -206 0
-115 -154 -198 -203 0
-115 -155 -167 -261 0
-115 -155 -168 -246 0
-115 -155 -171 -234 0
-115 -155 -172 -233 0
-115 -155 -175 -225 0
-115 -155 -178 -213 0
-115 -155 -179 -212 0
-115 -155 -184 -207 0
-115 -155 -185 -206 0
-115 -155 -197 -203 0
-115 -161 -167 -255 0
-115 -161 -168 -240 0
-115 -161 -169 -235 0
-115 -161 -173 -231 0
-115 -161 -175 -219 0
-115 -161 -176 -214 0
-115 -161 -180 -210 0
-115 -161 -182 -208 0
-115 -161 -186 -204 0
-115 -161 -191 -203 0
-115 -162 -167 -254 0
-115 -162 -168 -239 0
-115 -162 -169 -234 0
-115 -162 -172 -231 0
-115 -162 -175 -218 0
-115 -162 -176 -213 0
-115 -162 -179 -210 0
-115 -162 -182 -207 0
-115 -162 -185 -204 0
-115 -162 -190 -203 0
-115 -164 -167 -253 0
-115 -164 -168 -238 0
-115 -164 -169 -233 0
-115 -164 -171 -231 0
-115 -164 -175 -217 0
-115 -164 -176 -212 0
-115 -164 -178 -210 0
-115 -164 -182 -206 0
-115 -164 -184 -204 0
-115 -164 -189 -203 0
-116 -146 -167 -282 0
-116 -146 -170 -251 0
-116 -146 -173 -245 0
-116 -146 -174 -244 0
-116 -146 -177 -230 0
-116 -146 -180 -224 0
-116 -146 -181 -223 0
-116 -146 -195 -209 0
-116 -146 -196 -208 0
-116 -146 -202 -205 0
-116 -147 -167 -276 0
-116 -147 -169 -251 0
-116 -147 -173 -241 0
-116 -147 -174 -240 0
-116 -147 -176 -230 0
-116 -147 -180 -220 0
-116 -147 -181 -219 0
-116 -147 -191 -209 0
-116 -147 -192 -208 0
-116 -147 -202 -204 0
-116 -150 -167 -270 0
-116 -150 -169 -245 0
-116 -150 -170 -241 0
-116 -150 -174 -237 0
-116 -150 -176 -224 0
-116 -150 -177 -220 0
-116 -150 -181 -216 0
-116 -150 -188 -209 0
-116 -150 -192 -205 0
-116 -150 -196 -204 0
-116 -151 -167 -269 0
-116 -151 -169 -244 0
-116 -151 -170 -240 0
-116 -151 -173 -237 0
-116 -151 -176 -223 0
-116 -151 -177 -219 0
-116 -151 -180 -216 0
-116 -151 -188 -208 0
-116 -151 -191 -205 0
-116 -151 -195 -204 0
-116 -152 -167 -266 0
-116 -152 -168 -251 0
-116 -152 -173 -236 0
-116 -152 -174 -235 0
-116 -152 -175 -230 0
-116 -152 -180 -215 0
-116 -152 -181 -214 0
-116 -152 -186 -209 0
-116 -152 -187 -208 0
-116 -152 -202 -203 0
-116 -155 -167 -260 0
-116 -155 -168 -245 0
-116 -155 -170 -236 0
-116 -155 -174 -232 0
-116 -155 -175 -224 0
-116 -155 -177 -215 0
-116 -155 -181 -211 0
-116 -155 -183 -209 0
-116 -155 -187 -205 0
-116 -155 -196 -203 0
-116 -156 -167 -259 0
-116 -156 -168 -244 0
-116 -156 -170 -235 0
-116 -156 -173 -232 0
-116 -156 -175 -223 0
-116 -156 -177 -214 0
-116 -156 -180 -211 0
-116 -156 -183 -208 0
-116 -156 -186 -205 0
-116 -156 -195 -203 0
-116 -159 -167 -256 0
-116 -159 -168 -241 0
-116 -159 -169 -236 0
-116 -159 -174 -231 0
-116 -159 -175 -220 0
-116 -159 -176 -215 0
-116 -159 -181 -210 0
-116 -159 -182 -209 0
-116 -159 -187 -204 0
-116 -159 -192 -203 0
-116 -160 -167 -255 0
-116 -160 -168 -240 0
-116 -160 -169 -235 0
-116 -160 -173 -231 0
-116 -160 -175 -219 0
-116 -160 -176 -214 0
-116 -160 -180 -210 0
-116 -160 -182 -208 0
-116 -160 -186 -204 0
-116 -160 -191 -203 0
-116 -166 -167 -252 0
-116 -166 -168 -237 0
-116 -166 -169 -232 0
-116 -166 -170 -231 0
-116 -166 -175 -216 0
-116 -166 -176 -211 0
-116 -166 -177 -210 0
-116 -166 -182 -205 0
-116 -166 -183 -204 0
-116 -166 -188 -203 0
-117 -146 -167 -281 0
-117 -146 -170 -250 0
-117 -146 -172 -245 0
-117 -146 -174 -243 0
-117 -146 -177 -229 0
-117 -146 -179 -224 0
-117 -146 -181 -222 0
-117 -146 -194 -209 0
-117 -146 -196 -207 0
-117 -146 -201 -205 0
-117 -147 -167 -275 0
-117 -147 -169 -250 0
-117 -147 -172 -241 0
-117 -147 -174 -239 0
-117 -147 -176 -229 0
-117 -147 -179 -220 0
-117 -147 -181 -218 0
-117 -147 -190 -209 0
-117 -147 -192 -207 0
-117 -147 -201 -204 0
-117 -149 -167 -270 0
-117 -149 -169 -245 0
-117 -149 -170 -241 0
-117 -149 -174 -237 0
-117 -149 -176 -224 0
-117 -149 -177 -220 0
-117 -149 -181 -216 0
-117 -149 -188 -209 0
-117 -149 -192 -205 0
-117 -149 -196 -204 0
-117 -151 -167 -268 0
-117 -151 -169 -243 0
-117 -151 -170 -239 0
-117 -151 -172 -237 0
-117 -151 -176 -222 0
-117 -151 -177 -218 0
-117 -151 -179 -216 0
-117 -151 -188 -207 0
-117 -151 -190 -205 0
-117 -151 -194 -204 0
-117 -152 -167 -265 0
-117 -152 -168 -250 0
-117 -152 -172 -236 0
-117 -152 -174 -234 0
-117 -152 -175 -229 0
-117 -152 -179 -215 0
-117 -152 -181 -213 0
-117 -152 -185 -209 0
-117 -152 -187 -207 0
-117 -152 -201 -203 0
-117 -154 -167 -260 0
-117 -154 -168 -245 0
-117 -154 -170 -236 0
-117 -154 -174 -232 0
-117 -154 -175 -224 0
-117 -154 -177 -215 0
-117 -154 -181 -211 0
-117 -154 -183 -209 0
-117 -154 -187 -205 0
-117 -154 -196 -203 0
-117 -156 -167 -258 0
-117 -156 -168 -243 0
-117 -156 -170 -234 0
-117 -156 -172 -232 0
-117 -156 -175 -222 0
-117 -156 -177 -213 0
-117 -156 -179 -211 0
-117 -156 -183 -207 0
-117 -156 -185 -205 0
-117 -156 -194 -203 0
-117 -158 -167 -256 0
-117 -158 -168 -241 0
-117 -158 -169 -236 0
-117 -158 -174 -231 0
-117 -158 -175 -220 0
-117 -158 -176 -215 0
-117 -158 -181 -210 0
-117 -158 -182 -209 0
-117 -158 -187 -204 0
-117 -158 -192 -203 0
-117 -160 -167 -254 0
-117 -160 -168 -239 0
-117 -160 -169 -234 0
-117 -160 -172 -231 0
-117 -160 -175 -218 0
-117 -160 -176 -213 0
-117 -160 -179 -210 0
-117 -160 -182 -207 0
-117 -160 -185 -204 0
-117 -160 -190 -203 0
-117 -165 -167 -252 0
-117 -165 -168 -237 0
-117 -165 -169 -232 0
-117 -165 -170 -231 0
-117 -165 -175 -216 0
-117 -165 -176 -211 0
-117 -165 -177 -210 0
-117 -165 -182 -205 0
-117 -165 -183 -204 0
-117 -165 -188 -203 0
-118 -146 -167 -280 0
-118 -146 -170 -249 0
-118 -146 -172 -244 0
-118 -146 -173 -243 0
-118 -146 -177 -228 0
-118 -146 -179 -223 0
-118 -146 -180 -222 0
-118 -146 -194 -208 0
-118 -146 -195 -207 0
-118 -146 -200 -205 0
-118 -147 -167 -274 0
-118 -147 -169 -249 0
-118 -147 -172 -240 0
-118 -147 -173 -239 0
-118 -147 -176 -228 0
-118 -147 -179 -219 0
-118 -147 -180 -218 0
-118 -147 -190 -208 0
-118 -147 -191 -207 0
-118 -147 -200 -204 0
-118 -149 -167 -269 0
-118 -149 -169 -244 0
-118 -149 -170 -240 0
-118 -149 -173 -237 0
-118 -149 -176 -223 0
-118 -149 -177 -219 0
-118 -149 -180 -216 0
-118 -149 -188 -208 0
-118 -149 -191 -205 0
-118 -149 -195 -204 0
-118 -150 -167 -268 0
-118 -150 -169 -243 0
-118 -150 -170 -239 0
-118 -150 -172 -237 0
-118 -150 -176 -222 0
-118 -150 -177 -218 0
-118 -150 -179 -216 0
-118 -150 -188 -207 0
-118 -150 -190 -205 0
-118 -150 -194 -204 0
-118 -152 -167 -264 0
-118 -152 -168 -249 0
-118 -152 -172 -235 0
-118 -152 -173 -234 0
-118 -152 -175 -228 0
-118 -152 -179 -214 0
-118 -152 -180 -213 0
-118 -152 -185 -208 0
-118 -152 -186 -207 0
-118 -152 -200 -203 0
-118 -154 -167 -259 0
-118 -154 -168 -244 0
-118 -154 -170 -235 0
-118 -154 -173 -232 0
-118 -154 -175 -223 0
-118 -154 -177 -214 0
-118 -154 -180 -211 0
-118 -154 -183 -208 0
-118 -154 -186 -205 0
-118 -154 -195 -203 0
-118 -155 -167 -258 0
-118 -155 -168 -243 0
-118 -155 -170 -234 0
-118 -155 -172 -232 0
-118 -155 -175 -222 0
-118 -155 -177 -213 0
-118 -155 -179 -211 0
-118 -155 -183 -207 0
-118 -155 -185 -205 0
-118 -155 -194 -203 0
-118 -158 -167 -255 0
-118 -158 -168 -240 0
-118 -158 -169 -235 0
-118 -158 -173 -231 0
-118 -158 -175 -219 0
-118 -158 -176 -214 0
-118 -158 -180 -210 0
-118 -158 -182 -208 0
-118 -158 -186 -204 0
-118 -158 -191 -203 0
-118 -159 -167 -254 0
-118 -159 -168 -239 0
-118 -159 -169 -234 0
-118 -159 -172 -231 0
-118 -159 -175 -218 0
-118 -159 -176 -213 0
-118 -159 -179 -210 0
-118 -159 -182 -207 0
-118 -159 -185 -204 0
-118 -159 -190 -203 0
-118 -164 -167 -252 0
-118 -164 -168 -237 0
-118 -164 -169 -232 0
-118 -164 -170 -231 0
-118 -164 -175 -216 0
-118 -164 -176 -211 0
-118 -164 -177 -210 0
-118 -164 -182 -205 0
-118 -164 -183 -204 0
-118 -164 -188 -203 0
-119 -146 -167 -279 0
-119 -146 -170 -248 0
-119 -146 -171 -245 0
-119 -146 -174 -242 0
-119 -146 -177 -227 0
-119 -146 -178 -224 0
-119 -146 -181 -221 0
-119 -146 -193 -209 0
-119 -146 -196 -206 0
-119 -146 -199 -205 0
-119 -147 -167 -273 0
-119 -147 -169 -248 0
-119 -147 -171 -241 0
-119 -147 -174 -238 0
-119 -147 -176 -227 0
-119 -147 -178 -220 0
-119 -147 -181 -217 0
-119 -147 -189 -209 0
-119 -147 -192 -206 0
-119 -147 -199 -204 0
-119 -148 -167 -270 0
-119 -148 -169 -245 0
-119 -148 -170 -241 0
-119 -148 -174 -237 0
-119 -148 -176 -224 0
-119 -148 -177 -220 0
-119 -148 -181 -216 0
-119 -148 -188 -209 0
-119 -148 -192 -205 0
-119 -148 -196 -204 0
-119 -151 -167 -267 0
-119 -151 -169 -242 0
-119 -151 -170 -238 0
-119 -151 -171 -237 0
-119 -151 -176 -221 0
-119 -151 -177 -217 0
-119 -151 -178 -216 0
-119 -151 -188 -206 0
-119 -151 -189 -205 0
-119 -151 -193 -204 0
-119 -152 -167 -263 0
-119 -152 -168 -248 0
-119 -152 -171 -236 0
-119 -152 -174 -233 0
-119 -152 -175 -227 0
-119 -152 -178 -215 0
-119 -152 -181 -212 0
-119 -152 -184 -209 0
-119 -152 -187 -206 0
-119 -152 -199 -203 0
-119 -153 -167 -260 0
-119 -153 -168 -245 0
-119 -153 -170 -236 0
-119 -153 -174 -232 0
-119 -153 -175 -224 0
-119 -153 -177 -215 0
-119 -153 -181 -211 0
-119 -153 -183 -209 0
-119 -153 -187 -205 0
-119 -153 -196 -203 0
-119 -156 -167 -257 0
-119 -156 -168 -242 0
-119 -156 -170 -233 0
-119 -156 -171 -232 0
-119 -156 -175 -221 0
-119 -156 -177 -212 0
-119 -156 -178 -211 0
-119 -156 -183 -206 0
-119 -156 -184 -205 0
-119 -156 -193 -203 0
-119 -157 -167 -256 0
-119 -157 -168 -241 0
-119 -157 -169 -236 0
-119 -157 -174 -231 0
-119 -157 -175 -220 0
-119 -157 -176 -215 0
-119 -157 -181 -210 0
-119 -157 -182 -209 0
-119 -157 -187 -204 0
-119 -157 -192 -203 0
-119 -160 -167 -253 0
-119 -160 -168 -238 0
-119 -160 -169 -233 0
-119 -160 -171 -231 0
-119 -160 -175 -217 0
-119 -160 -176 -212 0
-119 -160 -178 -210 0
-119 -160 -182 -206 0
-119 -160 -184 -204 0
-119 -160 -189 -203 0
-119 -163 -167 -252 0
-119 -163 -168 -237 0
-119 -163 -169 -232 0
-119 -163 -170 -231 0
-119 -163 -175 -216 0
-119 -163 -176 -211 0
-119 -163 -177 -210 0
-119 -163 -182 -205 0
-119 -163 -183 -204 0
-119 -163 -188 -203 0
-120 -146 -167 -278 0
-120 -146 -170 -247 0
-120 -146 -171 -244 0
-120 -146 -173 -242 0
-120 -146 -177 -226 0
-120 -146 -178 -223 0
-120 -146 -180 -221 0
-120 -146 -193 -208 0
-120 -146 -195 -206 0
-120 -146 -198 -205 0
-120 -147 -167 -272 0
-120 -147 -169 -247 0
-120 -147 -171 -240 0
-120 -147 -173 -238 0
-120 -147 -176 -226 0
-120 -147 -178 -219 0
-120 -147 -180 -217 0
-120 -147 -189 -208 0
-120 -147 -191 -206 0
-120 -147 -198 -204 0
-120 -148 -167 -269 0
-120 -148 -169 -244 0
-120 -148 -170 -240 0
-120 -148 -173 -237 0
-120 -148 -176 -223 0
-120 -148 -177 -219 0
-120 -148 -180 -216 0
-120 -148 -188 -208 0
-120 -148 -191 -205 0
-120 -148 -195 -204 0
-120 -150 -167 -267 0
-120 -150 -169 -242 0
-120 -150 -170 -238 0
-120 -150 -171 -237 0
-120 -150 -176 -221 0
-120 -150 -177 -217 0
-120 -150 -178 -216 0
-120 -150 -188 -206 0
-120 -150 -189 -205 0
-120 -150 -193 -204 0
-120 -152 -167 -262 0
-120 -152 -168 -247 0
-120 -152 -171 -235 0
-120 -152 -173 -233 0
-120 -152 -175 -226 0
-120 -152 -178 -214 0
-120 -152 -180 -212 0
-120 -152 -184 -208 0
-120 -152 -186 -206 0
-120 -152 -198 -203 0
-120 -153 -167 -259 0
-120 -153 -168 -244 0
-120 -153 -170 -235 0
-120 -153 -173 -232 0
-120 -153 -175 -223 0
-120 -153 -177 -214 0
-120 -153 -180 -211 0
-120 -153 -183 -208 0
-120 -153 -186 -205 0
-120 -153 -195 -203 0
-120 -155 -167 -257 0
-120 -155 -168 -242 0
-120 -155 -170 -233 0
-120 -155 -171 -232 0
-120 -155 -175 -221 0
-120 -155 -177 -212 0
-120 -155 -178 -211 0
-120 -155 -183 -206 0
-120 -155 -184 -205 0
-120 -155 -193 -203 0
-120 -157 -167 -255 0
-120 -157 -168 -240 0
-120 -157 -169 -235 0
-120 -157 -173 -231 0
-120 -157 -175 -219 0
-120 -157 -176 -214 0
-120 -157 -180 -210 0
-120 -157 -182 -208 0
-120 -157 -186 -204 0
-120 -157 -191 -203 0
-120 -159 -167 -253 0
-120 -159 -168 -238 0
-120 -159 -169 -233 0
-120 -159 -171 -231 0
-120 -159 -175 -217 0
-120 -159 -176 -212 0
-120 -159 -178 -210 0
-120 -159 -182 -206 0
-120 -159 -184 -204 0
-120 -159 -189 -203 0
-120 -162 -167 -252 0
-120 -162 -168 -237 0
-120 -162 -169 -232 0
-120 -162 -170 -231 0
-120 -162 -175 -216 0
-120 -162 -176 -211 0
-120 -162 -177 -210 0
-120 -162 -182 -205 0
-120 -162 -183 -204 0
-120 -162 -188 -203 0
-121 -146 -167 -277 0
-121 -146 -170 -246 0
-121 -146 -171 -243 0
-121 -146 -172 -242 0
-121 -146 -177 -225 0
-121 -146 -178 -222 0
-121 -146 -179 -221 0
-121 -146 -193 -207 0
-121 -146 -194 -206 0
-121 -146 -197 -205 0
-121 -147 -167 -271 0
-121 -147 -169 -246 0
-121 -147 -171 -239 0
-121 -147 -172 -238 0
-121 -147 -176 -225 0
-121 -147 -178 -218 0
-121 -147 -179 -217 0
-121 -147 -189 -207 0
-121 -147 -190 -206 0
-121 -147 -197 -204 0
-121 -148 -167 -268 0
-121 -148 -169 -243 0
-121 -148 -170 -239 0
-121 -148 -172 -237 0
-121 -148 -176 -222 0
-121 -148 -177 -218 0
-121 -148 -179 -216 0
-121 -148 -188 -207 0
-121 -148 -190 -205 0
-121 -148 -194 -204 0
-121 -149 -167 -267 0
-121 -149 -169 -242 0
-121 -149 -170 -238 0
-121 -149 -171 -237 0
-121 -149 -176 -221 0
-121 -149 -177 -217 0
-121 -149 -178 -216 0
-121 -149 -188 -206 0
-121 -149 -189 -205 0
-121 -149 -193 -204 0
-121 -152 -167 -261 0
-121 -152 -168 -246 0
-121 -152 -171 -234 0
-121 -152 -172 -233 0
-121 -152 -175 -225 0
-121 -152 -178 -213 0
-121 -152 -179 -212 0
-121 -152 -184 -207 0
-121 -152 -185 -206 0
-121 -152 -197 -203 0
-121 -153 -167 -258 0
-121 -153 -168 -243 0
-121 -153 -170 -234 0
-121 -153 -172 -232 0
-121 -153 -175 -222 0
-121 -153 -177 -213 0
-121 -153 -179 -211 0
-121 -153 -183 -207 0
-121 -153 -185 -205 0
-121 -153 -194 -203 0
-121 -154 -167 -257 0
-121 -154 -168 -242 0
-121 -154 -170 -233 0
-121 -154 -171 -232 0
-121 -154 -175 -221 0
-121 -154 -177 -212 0
-121 -154 -178 -211 0
-121 -154 -183 -206 0
-121 -154 -184 -205 0
-121 -154 -193 -203 0
-121 -157 -167 -254 0
-121 -157 -168 -239 0
-121 -157 -169 -234 0
-121 -157 -172 -231 0
-121 -157 -175 -218 0
-121 -157 -176 -213 0
-121 -157 -179 -210 0
-121 -157 -182 -207 0
-121 -157 -185 -204 0
-121 -157 -190 -203 0
-121 -158 -167 -253 0
-121 -158 -168 -238 0
-121 -158 -169 -233 0
-121 -158 -171 -231 0
-121 -158 -175 -217 0
-121 -158 -176 -212 0
-121 -158 -178 -210 0
-121 -158 -182 -206 0
-121 -158 -184 -204 0
-121 -158 -189 -203 0
-121 -161 -167 -252 0
-121 -161 -168 -237 0
-121 -161 -169 -232 0
-121 -161 -170 -231 0
-121 -161 -175 -216 0
-121 -161 -176 -211 0
-121 -161 -177 -210 0
-121 -161 -182 -205 0
-121 -161 -183 -204 0
-121 -161 -188 -203 0
1 0
2 0
3 0
4 0
5 0
6 0
-7 0
-8 0
-9 0
-10 0
-11 0
12 0
13 0
14 0
-15 0
-16 0
-17 0
-18 0
-19 0
-20 0
-21 0
