p cnf 286 477
-2 -3 -4 -22 -23 -31 0
-2 -3 -5 -22 -24 -32 0
-2 -3 -6 -22 -25 -33 0
-2 -4 -5 -23 -24 -39 0
-2 -4 -6 -23 -25 -40 0
-2 -5 -6 -24 -25 -46 0
-3 -4 -5 -31 -32 -39 0
-3 -4 -6 -31 -33 -40 0
-3 -5 -6 -32 -33 -46 0
-4 -5 -6 -39 -40 -46 0
9 10 11 64 65 66 0
12 13 14 22 23 31 0
12 13 15 22 24 32 0
12 13 16 22 25 33 0
12 13 19 22 28 36 0
12 13 20 22 29 37 0
12 13 21 22 30 38 0
12 14 15 23 24 39 0
12 14 16 23 25 40 0
12 14 19 23 28 43 0
12 14 20 23 29 44 0
12 14 21 23 30 45 0
12 15 16 24 25 46 0
12 15 19 24 28 49 0
12 15 20 24 29 50 0
12 15 21 24 30 51 0
12 16 19 25 28 54 0
12 16 20 25 29 55 0
12 16 21 25 30 56 0
12 19 20 28 29 64 0
12 19 21 28 30 65 0
12 20 21 29 30 66 0
13 14 15 31 32 39 0
13 14 16 31 33 40 0
13 14 19 31 36 43 0
13 14 20 31 37 44 0
13 14 21 31 38 45 0
13 15 16 32 33 46 0
13 15 19 32 36 49 0
13 15 20 32 37 50 0
13 15 21 32 38 51 0
13 16 19 33 36 54 0
13 16 20 33 37 55 0
13 16 21 33 38 56 0
13 19 20 36 37 64 0
13 19 21 36 38 65 0
13 20 21 37 38 66 0
14 15 16 39 40 46 0
14 15 19 39 43 49 0
14 15 20 39 44 50 0
14 15 21 39 45 51 0
14 16 19 40 43 54 0
14 16 20 40 44 55 0
14 16 21 40 45 56 0
14 19 20 43 44 64 0
14 19 21 43 45 65 0
14 20 21 44 45 66 0
15 16 19 46 49 54 0
15 16 20 46 50 55 0
15 16 21 46 51 56 0
15 19 20 49 50 64 0
15 19 21 49 51 65 0
15 20 21 50 51 66 0
16 19 20 54 55 64 0
16 19 21 54 56 65 0
16 20 21 55 56 66 0
-22 -28 -29 -36 -37 -64 0
-22 -28 -30 -36 -38 -65 0
-22 -29 -30 -37 -38 -66 0
-23 -28 -29 -43 -44 -64 0
-23 -28 -30 -43 -45 -65 0
-23 -29 -30 -44 -45 -66 0
-24 -28 -29 -49 -50 -64 0
-24 -28 -30 -49 -51 -65 0
-24 -29 -30 -50 -51 -66 0
-25 -28 -29 -54 -55 -64 0
-25 -28 -30 -54 -56 -65 0
-25 -29 -30 -55 -56 -66 0
-28 -29 -30 -64 -65 -66 0
-31 -32 -37 -39 -44 -50 0
-31 -36 -37 -43 -44 -64 0
-31 -36 -38 -43 -45 -65 0
-31 -37 -38 -44 -45 -66 0
-32 -36 -37 -49 -50 -64 0
-32 -36 -38 -49 -51 -65 0
-32 -37 -38 -50 -51 -66 0
-33 -36 -37 -54 -55 -64 0
-33 -36 -38 -54 -56 -65 0
-33 -37 -38 -55 -56 -66 0
-39 -43 -44 -49 -50 -64 0
-39 -43 -45 -49 -51 -65 0
-39 -44 -45 -50 -51 -66 0
-40 -43 -44 -54 -55 -64 0
-40 -43 -45 -54 -56 -65 0
-40 -44 -45 -55 -56 -66 0
-46 -49 -50 -54 -55 -64 0
-46 -49 -51 -54 -56 -65 0
-46 -50 -51 -55 -56 -66 0
-49 -50 -51 -64 -65 -66 0
-54 -55 -56 -64 -65 -66 0
77 -2 -3 -22 0
78 -2 -4 -23 0
79 -2 -5 -24 0
80 -2 -6 -25 0
86 -3 -4 -31 0
87 -3 -5 -32 0
88 -3 -6 -33 0
94 -4 -5 -39 0
95 -4 -6 -40 0
101 -5 -6 -46 0
112 7 8 57 0
122 12 13 22 0
123 12 14 23 0
124 12 15 24 0
125 12 16 25 0
128 12 19 28 0
129 12 20 29 0
130 12 21 30 0
131 13 14 31 0
132 13 15 32 0
133 13 16 33 0
136 13 19 36 0
137 13 20 37 0
138 13 21 38 0
139 14 15 39 0
140 14 16 40 0
143 14 19 43 0
144 14 20 44 0
145 14 21 45 0
146 15 16 46 0
149 15 19 49 0
150 15 20 50 0
151 15 21 51 0
154 16 19 54 0
155 16 20 55 0
156 16 21 56 0
157 -17 -18 -57 0
165 19 21 65 0
169 -22 -25 -33 0
172 -22 -28 -36 0
173 -22 -29 -37 0
174 -22 -30 -38 0
174 22 30 38 0
179 -23 -28 -43 0
180 -23 -29 -44 0
181 -23 -30 -45 0
181 23 30 45 0
185 -24 -28 -49 0
186 -24 -29 -50 0
187 -24 -30 -51 0
190 -25 -28 -54 0
191 -25 -29 -55 0
192 -25 -30 -56 0
200 -28 -29 -64 0
201 -28 -30 -65 0
202 -29 -30 -66 0
202 29 30 66 0
207 -31 -36 -43 0
208 -31 -37 -44 0
209 -31 -38 -45 0
213 -32 -36 -49 0
214 -32 -37 -50 0
215 -32 -38 -51 0
218 -33 -36 -54 0
219 -33 -37 -55 0
220 -33 -38 -56 0
228 -36 -37 -64 0
229 -36 -38 -65 0
230 -37 -38 -66 0
234 -39 -43 -49 0
235 -39 -44 -50 0
235 39 44 50 0
236 -39 -45 -51 0
239 -40 -43 -54 0
240 -40 -44 -55 0
240 40 44 55 0
241 -40 -45 -56 0
249 -43 -44 -64 0
250 -43 -45 -65 0
251 -44 -45 -66 0
251 44 45 66 0
254 -46 -49 -54 0
255 -46 -50 -55 0
256 -46 -51 -56 0
264 -49 -50 -64 0
264 49 50 64 0
265 -49 -51 -65 0
266 -50 -51 -66 0
266 50 51 66 0
274 -54 -55 -64 0
275 -54 -56 -65 0
276 -55 -56 -66 0
-77 -157 -234 -276 0
-77 -157 -235 -275 0
-77 -157 -236 -274 0
-77 -157 -239 -266 0
-77 -157 -240 -265 0
-77 -157 -249 -256 0
-77 -157 -250 -255 0
-77 -157 -251 -254 0
-78 -157 -213 -276 0
-78 -157 -214 -275 0
-78 -157 -215 -274 0
-78 -157 -218 -266 0
-78 -157 -219 -265 0
-78 -157 -220 -264 0
-78 -157 -228 -256 0
-78 -157 -229 -255 0
-78 -157 -230 -254 0
-79 -157 -207 -276 0
-79 -157 -208 -275 0
-79 -157 -209 -274 0
-79 -157 -218 -251 0
-79 -157 -219 -250 0
-79 -157 -220 -249 0
-79 -157 -228 -241 0
-79 -157 -229 -240 0
-79 -157 -230 -239 0
-80 -157 -207 -266 0
-80 -157 -208 -265 0
-80 -157 -214 -250 0
-80 -157 -215 -249 0
-80 -157 -228 -236 0
-80 -157 -229 -235 0
-80 -157 -230 -234 0
-86 -157 -185 -276 0
-86 -157 -186 -275 0
-86 -157 -187 -274 0
-86 -157 -190 -266 0
-86 -157 -191 -265 0
-86 -157 -192 -264 0
-86 -157 -200 -256 0
-86 -157 -201 -255 0
-86 -157 -202 -254 0
-87 -157 -179 -276 0
-87 -157 -180 -275 0
-87 -157 -181 -274 0
-87 -157 -190 -251 0
-87 -157 -191 -250 0
-87 -157 -192 -249 0
-87 -157 -200 -241 0
-87 -157 -201 -240 0
-87 -157 -202 -239 0
-88 -157 -179 -266 0
-88 -157 -180 -265 0
-88 -157 -181 -264 0
-88 -157 -185 -251 0
-88 -157 -186 -250 0
-88 -157 -187 -249 0
-88 -157 -200 -236 0
-88 -157 -201 -235 0
-88 -157 -202 -234 0
-94 -157 -172 -276 0
-94 -157 -173 -275 0
-94 -157 -174 -274 0
-94 -157 -190 -230 0
-94 -157 -191 -229 0
-94 -157 -192 -228 0
-94 -157 -200 -220 0
-94 -157 -201 -219 0
-94 -157 -202 -218 0
-95 -157 -172 -266 0
-95 -157 -173 -265 0
-95 -157 -174 -264 0
-95 -157 -185 -230 0
-95 -157 -186 -229 0
-95 -157 -187 -228 0
-95 -157 -200 -215 0
-95 -157 -201 -214 0
-95 -157 -202 -213 0
-101 -157 -172 -251 0
-101 -157 -173 -250 0
-101 -157 -174 -249 0
-101 -157 -179 -230 0
-101 -157 -180 -229 0
-101 -157 -181 -228 0
-101 -157 -200 -209 0
-101 -157 -201 -208 0
-101 -157 -202 -207 0
-112 -122 -234 -276 0
-112 -122 -235 -275 0
-112 -122 -236 -274 0
-112 -122 -239 -266 0
-112 -122 -240 -265 0
-112 -122 -241 -264 0
-112 -122 -250 -255 0
-112 -122 -251 -254 0
-112 -123 -213 -276 0
-112 -123 -214 -275 0
-112 -123 -215 -274 0
-112 -123 -218 -266 0
-112 -123 -219 -265 0
-112 -123 -220 -264 0
-112 -123 -228 -256 0
-112 -123 -229 -255 0
-112 -123 -230 -254 0
-112 -124 -207 -276 0
-112 -124 -208 -275 0
-112 -124 -209 -274 0
-112 -124 -218 -251 0
-112 -124 -219 -250 0
-112 -124 -220 -249 0
-112 -124 -228 -241 0
-112 -124 -229 -240 0
-112 -124 -230 -239 0
-112 -125 -207 -266 0
-112 -125 -208 -265 0
-112 -125 -209 -264 0
-112 -125 -213 -251 0
-112 -125 -214 -250 0
-112 -125 -215 -249 0
-112 -125 -228 -236 0
-112 -125 -229 -235 0
-112 -125 -230 -234 0
-112 -128 -208 -256 0
-112 -128 -209 -255 0
-112 -128 -214 -241 0
-112 -128 -215 -240 0
-112 -128 -219 -236 0
-112 -128 -220 -235 0
-112 -129 -207 -256 0
-112 -129 -209 -254 0
-112 -129 -213 -241 0
-112 -129 -215 -239 0
-112 -129 -218 -236 0
-112 -129 -220 -234 0
-112 -130 -207 -255 0
-112 -130 -208 -254 0
-112 -130 -213 -240 0
-112 -130 -214 -239 0
-112 -130 -218 -235 0
-112 -130 -219 -234 0
-112 -131 -185 -276 0
-112 -131 -186 -275 0
-112 -131 -187 -274 0
-112 -131 -190 -266 0
-112 -131 -191 -265 0
-112 -131 -192 -264 0
-112 -131 -200 -256 0
-112 -131 -201 -255 0
-112 -131 -202 -254 0
-112 -132 -179 -276 0
-112 -132 -180 -275 0
-112 -132 -190 -251 0
-112 -132 -191 -250 0
-112 -132 -192 -249 0
-112 -132 -200 -241 0
-112 -132 -201 -240 0
-112 -132 -202 -239 0
-112 -133 -179 -266 0
-112 -133 -180 -265 0
-112 -133 -181 -264 0
-112 -133 -185 -251 0
-112 -133 -186 -250 0
-112 -133 -187 -249 0
-112 -133 -200 -236 0
-112 -133 -201 -235 0
-112 -133 -202 -234 0
-112 -136 -180 -256 0
-112 -136 -181 -255 0
-112 -136 -186 -241 0
-112 -136 -187 -240 0
-112 -136 -191 -236 0
-112 -136 -192 -235 0
-112 -137 -179 -256 0
-112 -137 -181 -254 0
-112 -137 -187 -239 0
-112 -137 -190 -236 0
-112 -137 -192 -234 0
-112 -138 -179 -255 0
-112 -138 -180 -254 0
-112 -138 -185 -240 0
-112 -138 -186 -239 0
-112 -138 -190 -235 0
-112 -138 -191 -234 0
-112 -139 -172 -276 0
-112 -139 -173 -275 0
-112 -139 -174 -274 0
-112 -139 -190 -230 0
-112 -139 -191 -229 0
-112 -139 -192 -228 0
-112 -139 -200 -220 0
-112 -139 -201 -219 0
-112 -139 -202 -218 0
-112 -140 -172 -266 0
-112 -140 -173 -265 0
-112 -140 -174 -264 0
-112 -140 -185 -230 0
-112 -140 -186 -229 0
-112 -140 -187 -228 0
-112 -140 -200 -215 0
-112 -140 -201 -214 0
-112 -140 -202 -213 0
-112 -143 -173 -256 0
-112 -143 -174 -255 0
-112 -143 -186 -220 0
-112 -143 -187 -219 0
-112 -143 -191 -215 0
-112 -143 -192 -214 0
-112 -144 -172 -256 0
-112 -144 -174 -254 0
-112 -144 -185 -220 0
-112 -144 -187 -218 0
-112 -144 -190 -215 0
-112 -144 -192 -213 0
-112 -145 -172 -255 0
-112 -145 -173 -254 0
-112 -145 -185 -219 0
-112 -145 -186 -218 0
-112 -145 -190 -214 0
-112 -145 -191 -213 0
-112 -146 -172 -251 0
-112 -146 -173 -250 0
-112 -146 -174 -249 0
-112 -146 -179 -230 0
-112 -146 -180 -229 0
-112 -146 -181 -228 0
-112 -146 -200 -209 0
-112 -146 -201 -208 0
-112 -146 -202 -207 0
-112 -149 -173 -241 0
-112 -149 -174 -240 0
-112 -149 -180 -220 0
-112 -149 -181 -219 0
-112 -149 -191 -209 0
-112 -149 -192 -208 0
-112 -150 -172 -241 0
-112 -150 -174 -239 0
-112 -150 -179 -220 0
-112 -150 -181 -218 0
-112 -150 -190 -209 0
-112 -150 -192 -207 0
-112 -151 -172 -240 0
-112 -151 -173 -239 0
-112 -151 -179 -219 0
-112 -151 -180 -218 0
-112 -151 -190 -208 0
-112 -151 -191 -207 0
-112 -154 -173 -236 0
-112 -154 -174 -235 0
-112 -154 -180 -215 0
-112 -154 -181 -214 0
-112 -154 -186 -209 0
-112 -154 -187 -208 0
-112 -155 -172 -236 0
-112 -155 -174 -234 0
-112 -155 -179 -215 0
-112 -155 -181 -213 0
-112 -155 -185 -209 0
-112 -155 -187 -207 0
-112 -156 -172 -235 0
-112 -156 -173 -234 0
-112 -156 -179 -214 0
-112 -156 -180 -213 0
-112 -156 -185 -208 0
-112 -156 -186 -207 0
-112 -165 -169 -235 0
2 0
3 0
4 0
5 0
6 0
-7 0
-8 0
-9 0
-10 0
-11 0
-12 0
-13 0
-14 0
-15 0
-16 0
17 0
18 0
-19 0
-20 0
-21 0
