p cnf 286 1266
-1 -2 -3 -12 -13 -22 0
-1 -2 -4 -12 -14 -23 0
-1 -3 -4 -13 -14 -31 0
-2 -5 -6 -24 -25 -46 0
-3 -5 -6 -32 -33 -46 0
-4 -5 -6 -39 -40 -46 0
7 8 9 57 58 61 0
7 8 10 57 59 62 0
7 8 11 57 60 63 0
7 9 10 58 59 64 0
7 9 11 58 60 65 0
7 10 11 59 60 66 0
8 9 10 61 62 64 0
8 9 11 61 63 65 0
8 10 11 62 63 66 0
9 10 11 64 65 66 0
-12 -17 -18 -26 -27 -57 0
-12 -17 -19 -26 -28 -58 0
-12 -17 -20 -26 -29 -59 0
-12 -18 -19 -27 -28 -61 0
-12 -18 -20 -27 -29 -62 0
-12 -19 -20 -28 -29 -64 0
-13 -17 -18 -34 -35 -57 0
-13 -17 -19 -34 -36 -58 0
-13 -17 -20 -34 -37 -59 0
-13 -18 -19 -35 -36 -61 0
-13 -18 -20 -35 -37 -62 0
-13 -19 -20 -36 -37 -64 0
-14 -17 -18 -41 -42 -57 0
-14 -17 -19 -41 -43 -58 0
-14 -17 -20 -41 -44 -59 0
-14 -18 -19 -42 -43 -61 0
-14 -18 -20 -42 -44 -62 0
-14 -19 -20 -43 -44 -64 0
-17 -18 -19 -57 -58 -61 0
-17 -18 -20 -57 -59 -62 0
-17 -19 -20 -58 -59 -64 0
-18 -19 -20 -61 -62 -64 0
22 23 24 31 32 39 0
22 23 25 31 33 40 0
22 23 26 31 34 41 0
22 23 27 31 35 42 0
22 23 28 31 36 43 0
22 23 29 31 37 44 0
22 24 26 32 34 47 0
22 24 27 32 35 48 0
22 24 28 32 36 49 0
22 24 29 32 37 50 0
22 25 26 33 34 52 0
22 25 27 33 35 53 0
22 25 28 33 36 54 0
22 25 29 33 37 55 0
22 26 27 34 35 57 0
22 26 28 34 36 58 0
22 26 29 34 37 59 0
22 27 28 35 36 61 0
22 27 29 35 37 62 0
22 28 29 36 37 64 0
23 24 26 39 41 47 0
23 24 27 39 42 48 0
23 24 28 39 43 49 0
23 24 29 39 44 50 0
23 25 26 40 41 52 0
23 25 27 40 42 53 0
23 25 28 40 43 54 0
23 25 29 40 44 55 0
23 26 27 41 42 57 0
23 26 28 41 43 58 0
23 26 29 41 44 59 0
23 27 28 42 43 61 0
23 27 29 42 44 62 0
23 28 29 43 44 64 0
24 26 27 47 48 57 0
24 26 28 47 49 58 0
-24 -26 -30 -47 -51 -60 0
-24 -27 -30 -48 -51 -63 0
24 28 29 49 50 64 0
-24 -28 -30 -49 -51 -65 0
-24 -29 -30 -50 -51 -66 0
25 26 27 52 53 57 0
25 26 28 52 54 58 0
-25 -26 -30 -52 -56 -60 0
25 27 28 53 54 61 0
25 27 29 53 55 62 0
-25 -27 -30 -53 -56 -63 0
25 28 29 54 55 64 0
-25 -28 -30 -54 -56 -65 0
-25 -29 -30 -55 -56 -66 0
31 32 34 39 41 47 0
31 32 35 39 42 48 0
31 32 37 39 44 50 0
31 33 35 40 42 53 0
31 33 36 40 43 54 0
31 33 37 40 44 55 0
31 34 35 41 42 57 0
31 34 36 41 43 58 0
31 34 37 41 44 59 0
31 35 36 42 43 61 0
31 35 37 42 44 62 0
31 36 37 43 44 64 0
32 34 35 47 48 57 0
-32 -34 -38 -47 -51 -60 0
32 35 37 48 50 62 0
-32 -35 -38 -48 -51 -63 0
-32 -36 -38 -49 -51 -65 0
-32 -37 -38 -50 -51 -66 0
33 34 35 52 53 57 0
33 34 36 52 54 58 0
-33 -34 -38 -52 -56 -60 0
33 35 36 53 54 61 0
33 35 37 53 55 62 0
-33 -35 -38 -53 -56 -63 0
-33 -36 -38 -54 -56 -65 0
-33 -37 -38 -55 -56 -66 0
39 41 42 47 48 57 0
39 41 43 47 49 58 0
39 41 44 47 50 59 0
-39 -41 -45 -47 -51 -60 0
39 41 45 47 51 60 0
-39 -42 -45 -48 -51 -63 0
39 42 45 48 51 63 0
-39 -43 -45 -49 -51 -65 0
-39 -44 -45 -50 -51 -66 0
40 41 42 52 53 57 0
40 41 43 52 54 58 0
40 41 44 52 55 59 0
-40 -41 -45 -52 -56 -60 0
-40 -42 -45 -53 -56 -63 0
-40 -43 -45 -54 -56 -65 0
-40 -44 -45 -55 -56 -66 0
46 47 48 52 53 57 0
-46 -47 -49 -52 -54 -58 0
46 47 49 52 54 58 0
-46 -47 -50 -52 -55 -59 0
46 47 50 52 55 59 0
-46 -48 -49 -53 -54 -61 0
-46 -48 -50 -53 -55 -62 0
67 -1 -2 -12 0
68 -1 -3 -13 0
69 -1 -4 -14 0
79 -2 -5 -24 0
80 -2 -6 -25 0
87 -3 -5 -32 0
88 -3 -6 -33 0
94 -4 -5 -39 0
95 -4 -6 -40 0
101 -5 -6 -46 0
112 7 8 57 0
113 7 9 58 0
114 7 10 59 0
115 7 11 60 0
116 8 9 61 0
117 8 10 62 0
118 8 11 63 0
119 9 10 64 0
120 9 11 65 0
121 10 11 66 0
126 -12 -17 -26 0
127 -12 -18 -27 0
128 -12 -19 -28 0
129 -12 -20 -29 0
134 -13 -17 -34 0
135 -13 -18 -35 0
136 -13 -19 -36 0
137 -13 -20 -37 0
141 -14 -17 -41 0
142 -14 -18 -42 0
143 -14 -19 -43 0
144 -14 -20 -44 0
146 15 16 46 0
151 15 21 51 0
156 16 21 56 0
157 -17 -18 -57 0
158 -17 -19 -58 0
159 -17 -20 -59 0
161 -18 -19 -61 0
162 -18 -20 -62 0
164 -19 -20 -64 0
167 22 23 31 0
168 22 24 32 0
169 22 25 33 0
170 22 26 34 0
171 22 27 35 0
172 22 28 36 0
173 22 29 37 0
174 22 30 38 0
175 23 24 39 0
176 23 25 40 0
177 23 26 41 0
178 23 27 42 0
179 23 28 43 0
180 23 29 44 0
181 23 30 45 0
183 -24 -26 -47 0
183 24 26 47 0
184 -24 -27 -48 0
184 24 27 48 0
185 -24 -28 -49 0
185 24 28 49 0
186 -24 -29 -50 0
186 24 29 50 0
187 -24 -30 -51 0
187 24 30 51 0
188 -25 -26 -52 0
188 25 26 52 0
189 -25 -27 -53 0
189 25 27 53 0
190 -25 -28 -54 0
190 25 28 54 0
191 -25 -29 -55 0
191 25 29 55 0
192 -25 -30 -56 0
192 25 30 56 0
193 26 27 57 0
194 26 28 58 0
195 26 29 59 0
196 -26 -30 -60 0
196 26 30 60 0
197 27 28 61 0
198 27 29 62 0
199 -27 -30 -63 0
199 27 30 63 0
200 28 29 64 0
201 -28 -30 -65 0
201 28 30 65 0
202 -29 -30 -66 0
202 29 30 66 0
203 31 32 39 0
204 31 33 40 0
205 31 34 41 0
206 31 35 42 0
207 31 36 43 0
208 31 37 44 0
209 31 38 45 0
210 -32 -33 -46 0
210 32 33 46 0
211 -32 -34 -47 0
211 32 34 47 0
212 -32 -35 -48 0
212 32 35 48 0
213 -32 -36 -49 0
213 32 36 49 0
214 -32 -37 -50 0
214 32 37 50 0
215 -32 -38 -51 0
215 32 38 51 0
216 -33 -34 -52 0
216 33 34 52 0
217 -33 -35 -53 0
217 33 35 53 0
218 -33 -36 -54 0
218 33 36 54 0
219 -33 -37 -55 0
219 33 37 55 0
220 -33 -38 -56 0
220 33 38 56 0
221 34 35 57 0
222 34 36 58 0
223 34 37 59 0
224 -34 -38 -60 0
224 34 38 60 0
225 35 36 61 0
226 35 37 62 0
227 -35 -38 -63 0
227 35 38 63 0
228 36 37 64 0
229 -36 -38 -65 0
229 36 38 65 0
230 -37 -38 -66 0
230 37 38 66 0
231 -39 -40 -46 0
232 -39 -41 -47 0
232 39 41 47 0
233 -39 -42 -48 0
233 39 42 48 0
234 -39 -43 -49 0
234 39 43 49 0
235 -39 -44 -50 0
235 39 44 50 0
236 -39 -45 -51 0
236 39 45 51 0
237 -40 -41 -52 0
237 40 41 52 0
238 -40 -42 -53 0
238 40 42 53 0
239 -40 -43 -54 0
239 40 43 54 0
240 -40 -44 -55 0
240 40 44 55 0
241 -40 -45 -56 0
241 40 45 56 0
242 41 42 57 0
243 41 43 58 0
244 41 44 59 0
245 -41 -45 -60 0
245 41 45 60 0
246 -42 -43 -61 0
246 42 43 61 0
247 42 44 62 0
248 -42 -45 -63 0
248 42 45 63 0
249 43 44 64 0
250 -43 -45 -65 0
250 43 45 65 0
251 -44 -45 -66 0
251 44 45 66 0
252 -46 -47 -52 0
253 -46 -48 -53 0
253 46 48 53 0
254 -46 -49 -54 0
255 -46 -50 -55 0
255 46 50 55 0
256 -46 -51 -56 0
257 -47 -48 -57 0
257 47 48 57 0
258 -47 -49 -58 0
258 47 49 58 0
259 -47 -50 -59 0
259 47 50 59 0
260 -47 -51 -60 0
260 47 51 60 0
261 -48 -49 -61 0
261 48 49 61 0
262 -48 -50 -62 0
262 48 50 62 0
263 -48 -51 -63 0
263 48 51 63 0
264 -49 -50 -64 0
264 49 50 64 0
265 -49 -51 -65 0
265 49 51 65 0
266 -50 -51 -66 0
266 50 51 66 0
267 -52 -53 -57 0
267 52 53 57 0
268 -52 -54 -58 0
268 52 54 58 0
269 -52 -55 -59 0
269 52 55 59 0
270 -52 -56 -60 0
270 52 56 60 0
271 -53 -54 -61 0
271 53 54 61 0
272 -53 -55 -62 0
272 53 55 62 0
273 -53 -56 -63 0
273 53 56 63 0
274 -54 -55 -64 0
274 54 55 64 0
275 -54 -56 -65 0
275 54 56 65 0
276 -55 -56 -66 0
276 55 56 66 0
279 -57 -60 -63 0
281 -58 -60 -65 0
281 58 60 65 0
282 -59 -60 -66 0
284 -61 -63 -65 0
285 -62 -63 -66 0
285 62 63 66 0
286 -64 -65 -66 0
-67 -203 -267 -286 0
-67 -204 -257 -286 0
-67 -204 -258 -285 0
-67 -205 -254 -285 0
-67 -206 -252 -286 0
-67 -207 -259 -273 0
-67 -208 -260 -271 0
-67 -208 -263 -268 0
-67 -211 -238 -286 0
-67 -211 -239 -285 0
-67 -211 -247 -275 0
-67 -212 -237 -286 0
-67 -214 -238 -281 0
-67 -214 -250 -267 0
-67 -216 -233 -286 0
-67 -216 -234 -285 0
-67 -216 -248 -264 0
-67 -217 -232 -286 0
-67 -219 -250 -257 0
-67 -221 -239 -266 0
-67 -221 -249 -256 0
-67 -221 -250 -255 0
-67 -221 -251 -254 0
-67 -222 -238 -266 0
-67 -222 -247 -256 0
-67 -224 -246 -255 0
-67 -225 -244 -256 0
-67 -225 -251 -252 0
-67 -226 -243 -256 0
-67 -227 -249 -252 0
-67 -228 -242 -256 0
-68 -175 -267 -286 0
-68 -176 -257 -286 0
-68 -176 -258 -285 0
-68 -177 -253 -286 0
-68 -177 -254 -285 0
-68 -180 -253 -281 0
-68 -180 -260 -271 0
-68 -180 -263 -268 0
-68 -184 -237 -286 0
-68 -186 -242 -275 0
-68 -189 -232 -286 0
-68 -191 -242 -265 0
-68 -193 -235 -275 0
-68 -194 -241 -262 0
-68 -194 -247 -256 0
-68 -194 -248 -255 0
-68 -197 -244 -256 0
-68 -198 -243 -256 0
-69 -168 -267 -286 0
-69 -169 -257 -286 0
-69 -169 -258 -285 0
-69 -170 -254 -285 0
-69 -171 -252 -286 0
-69 -172 -259 -273 0
-69 -173 -253 -281 0
-69 -173 -260 -271 0
-69 -173 -261 -270 0
-69 -173 -263 -268 0
-69 -185 -230 -267 0
-69 -186 -221 -275 0
-69 -187 -223 -271 0
-69 -188 -212 -286 0
-69 -189 -214 -281 0
-69 -191 -221 -265 0
-69 -193 -214 -275 0
-69 -193 -228 -256 0
-69 -194 -219 -263 0
-69 -194 -226 -256 0
-69 -195 -225 -256 0
-69 -195 -229 -253 0
-69 -196 -225 -255 0
-69 -197 -223 -256 0
-69 -198 -222 -256 0
-79 -134 -238 -286 0
-79 -134 -239 -285 0
-79 -134 -247 -275 0
-79 -134 -248 -274 0
-79 -134 -249 -273 0
-79 -134 -250 -272 0
-79 -134 -251 -271 0
-79 -135 -243 -276 0
-79 -135 -245 -274 0
-79 -135 -249 -270 0
-79 -135 -250 -269 0
-79 -135 -251 -268 0
-79 -136 -242 -276 0
-79 -136 -245 -272 0
-79 -136 -247 -270 0
-79 -136 -248 -269 0
-79 -136 -251 -267 0
-79 -137 -238 -281 0
-79 -137 -242 -275 0
-79 -137 -245 -271 0
-79 -137 -248 -268 0
-79 -141 -217 -286 0
-79 -141 -226 -275 0
-79 -141 -227 -274 0
-79 -141 -228 -273 0
-79 -141 -229 -272 0
-79 -141 -230 -271 0
-79 -142 -216 -286 0
-79 -142 -219 -281 0
-79 -142 -222 -276 0
-79 -142 -223 -275 0
-79 -142 -229 -269 0
-79 -142 -230 -268 0
-79 -143 -221 -276 0
-79 -143 -223 -273 0
-79 -143 -224 -272 0
-79 -143 -227 -269 0
-79 -144 -217 -281 0
-79 -144 -222 -273 0
-79 -144 -224 -271 0
-79 -144 -227 -268 0
-79 -156 -221 -249 0
-79 -156 -222 -247 0
-79 -156 -223 -246 0
-79 -156 -225 -244 0
-79 -156 -226 -243 0
-79 -156 -228 -242 0
-79 -157 -218 -251 0
-79 -157 -229 -240 0
-79 -157 -230 -239 0
-79 -158 -206 -276 0
-79 -158 -208 -273 0
-79 -158 -217 -251 0
-79 -158 -219 -248 0
-79 -158 -227 -240 0
-79 -158 -230 -238 0
-79 -159 -206 -275 0
-79 -159 -207 -273 0
-79 -159 -217 -250 0
-79 -159 -218 -248 0
-79 -159 -227 -239 0
-79 -159 -229 -238 0
-79 -161 -205 -276 0
-79 -161 -208 -270 0
-79 -161 -216 -251 0
-79 -161 -219 -245 0
-79 -161 -224 -240 0
-79 -161 -230 -237 0
-79 -162 -204 -281 0
-79 -162 -205 -275 0
-79 -162 -216 -250 0
-79 -162 -218 -245 0
-79 -162 -220 -243 0
-79 -162 -222 -241 0
-79 -162 -224 -239 0
-79 -162 -229 -237 0
-79 -164 -217 -245 0
-79 -164 -220 -242 0
-79 -164 -221 -241 0
-79 -164 -227 -237 0
-80 -134 -233 -286 0
-80 -134 -234 -285 0
-80 -134 -248 -264 0
-80 -134 -249 -263 0
-80 -134 -250 -262 0
-80 -134 -251 -261 0
-80 -135 -232 -286 0
-80 -135 -235 -281 0
-80 -135 -249 -260 0
-80 -135 -250 -259 0
-80 -135 -251 -258 0
-80 -136 -232 -285 0
-80 -136 -242 -266 0
-80 -136 -248 -259 0
-80 -136 -251 -257 0
-80 -137 -233 -281 0
-80 -137 -242 -265 0
-80 -137 -245 -261 0
-80 -137 -250 -257 0
-80 -141 -212 -286 0
-80 -141 -229 -262 0
-80 -141 -230 -261 0
-80 -142 -211 -286 0
-80 -142 -214 -281 0
-80 -142 -230 -258 0
-80 -143 -221 -266 0
-80 -143 -223 -263 0
-80 -144 -212 -281 0
-80 -144 -221 -265 0
-80 -144 -222 -263 0
-80 -144 -224 -261 0
-80 -144 -227 -258 0
-80 -151 -221 -249 0
-80 -151 -222 -247 0
-80 -151 -223 -246 0
-80 -151 -225 -244 0
-80 -151 -226 -243 0
-80 -151 -228 -242 0
-80 -157 -214 -250 0
-80 -157 -229 -235 0
-80 -158 -206 -266 0
-80 -158 -212 -251 0
-80 -158 -227 -235 0
-80 -158 -230 -233 0
-80 -159 -206 -265 0
-80 -159 -212 -250 0
-80 -159 -213 -248 0
-80 -159 -227 -234 0
-80 -161 -205 -266 0
-80 -161 -208 -260 0
-80 -161 -211 -251 0
-80 -161 -214 -245 0
-80 -161 -224 -235 0
-80 -161 -230 -232 0
-80 -162 -203 -281 0
-80 -162 -205 -265 0
-80 -162 -211 -250 0
-80 -162 -224 -234 0
-80 -162 -229 -232 0
-80 -164 -212 -245 0
-80 -164 -221 -236 0
-80 -164 -224 -233 0
-87 -126 -238 -286 0
-87 -126 -248 -274 0
-87 -127 -237 -286 0
-87 -127 -251 -268 0
-87 -129 -248 -268 0
-87 -141 -189 -286 0
-87 -141 -197 -276 0
-87 -141 -198 -275 0
-87 -141 -199 -274 0
-87 -141 -202 -271 0
-87 -142 -188 -286 0
-87 -142 -201 -269 0
-87 -143 -196 -272 0
-87 -143 -198 -270 0
-87 -143 -202 -267 0
-87 -144 -189 -281 0
-87 -144 -194 -273 0
-87 -144 -197 -270 0
-87 -156 -193 -249 0
-87 -156 -194 -247 0
-87 -156 -195 -246 0
-87 -156 -197 -244 0
-87 -156 -198 -243 0
-87 -158 -180 -273 0
-87 -158 -189 -251 0
-87 -158 -191 -248 0
-87 -158 -199 -240 0
-87 -158 -202 -238 0
-87 -159 -178 -275 0
-87 -159 -189 -250 0
-87 -159 -190 -248 0
-87 -159 -199 -239 0
-87 -159 -201 -238 0
-87 -161 -180 -270 0
-87 -161 -188 -251 0
-87 -161 -191 -245 0
-87 -161 -196 -240 0
-87 -162 -177 -275 0
-87 -162 -179 -270 0
-87 -162 -188 -250 0
-87 -162 -196 -239 0
-87 -164 -188 -248 0
-87 -164 -189 -245 0
-87 -164 -196 -238 0
-87 -164 -199 -237 0
-88 -126 -233 -286 0
-88 -126 -247 -265 0
-88 -126 -250 -262 0
-88 -127 -232 -286 0
-88 -129 -245 -261 0
-88 -141 -184 -286 0
-88 -141 -197 -266 0
-88 -141 -198 -265 0
-88 -142 -183 -286 0
-88 -143 -183 -285 0
-88 -143 -196 -262 0
-88 -144 -184 -281 0
-88 -144 -196 -261 0
-88 -144 -201 -257 0
-88 -151 -193 -249 0
-88 -151 -194 -247 0
-88 -151 -195 -246 0
-88 -151 -197 -244 0
-88 -151 -198 -243 0
-88 -157 -186 -250 0
-88 -157 -201 -235 0
-88 -158 -184 -251 0
-88 -158 -186 -248 0
-88 -158 -199 -235 0
-88 -158 -202 -233 0
-88 -159 -184 -250 0
-88 -159 -185 -248 0
-88 -161 -180 -260 0
-88 -161 -183 -251 0
-88 -161 -186 -245 0
-88 -161 -202 -232 0
-88 -162 -183 -250 0
-88 -162 -196 -234 0
-88 -162 -201 -232 0
-88 -164 -177 -263 0
-88 -164 -183 -248 0
-88 -164 -184 -245 0
-88 -164 -199 -232 0
-94 -126 -217 -286 0
-94 -126 -225 -276 0
-94 -126 -227 -274 0
-94 -126 -229 -272 0
-94 -126 -230 -271 0
-94 -127 -216 -286 0
-94 -127 -223 -275 0
-94 -127 -224 -274 0
-94 -127 -229 -269 0
-94 -127 -230 -268 0
-94 -128 -224 -272 0
-94 -129 -224 -271 0
-94 -129 -227 -268 0
-94 -134 -189 -286 0
-94 -134 -190 -285 0
-94 -134 -197 -276 0
-94 -135 -188 -286 0
-94 -135 -194 -276 0
-94 -135 -195 -275 0
-94 -135 -196 -274 0
-94 -136 -193 -276 0
-94 -136 -195 -273 0
-94 -137 -189 -281 0
-94 -137 -196 -271 0
-94 -137 -199 -268 0
-94 -156 -193 -228 0
-94 -156 -194 -226 0
-94 -156 -195 -225 0
-94 -156 -197 -223 0
-94 -156 -198 -222 0
-94 -156 -200 -221 0
-94 -157 -192 -228 0
-94 -157 -200 -220 0
-94 -157 -202 -218 0
-94 -158 -189 -230 0
-94 -158 -191 -227 0
-94 -158 -199 -219 0
-94 -158 -202 -217 0
-94 -159 -172 -273 0
-94 -159 -189 -229 0
-94 -159 -190 -227 0
-94 -159 -199 -218 0
-94 -159 -201 -217 0
-94 -161 -173 -270 0
-94 -161 -188 -230 0
-94 -161 -191 -224 0
-94 -161 -196 -219 0
-94 -161 -202 -216 0
-94 -162 -188 -229 0
-94 -162 -190 -224 0
-94 -162 -194 -220 0
-94 -162 -196 -218 0
-94 -164 -189 -224 0
-94 -164 -192 -221 0
-94 -164 -196 -217 0
-95 -126 -212 -286 0
-95 -126 -225 -266 0
-95 -126 -227 -264 0
-95 -126 -228 -263 0
-95 -126 -229 -262 0
-95 -126 -230 -261 0
-95 -127 -211 -286 0
-95 -127 -214 -281 0
-95 -127 -223 -265 0
-95 -127 -224 -264 0
-95 -128 -221 -266 0
-95 -128 -223 -263 0
-95 -134 -184 -286 0
-95 -134 -185 -285 0
-95 -134 -201 -262 0
-95 -134 -202 -261 0
-95 -135 -183 -286 0
-95 -135 -194 -266 0
-95 -135 -202 -258 0
-95 -136 -195 -263 0
-95 -151 -193 -228 0
-95 -151 -194 -226 0
-95 -151 -195 -225 0
-95 -151 -197 -223 0
-95 -151 -198 -222 0
-95 -157 -185 -230 0
-95 -157 -202 -213 0
-95 -158 -186 -227 0
-95 -159 -171 -265 0
-95 -159 -172 -263 0
-95 -159 -184 -229 0
-95 -159 -185 -227 0
-95 -159 -197 -215 0
-95 -159 -199 -213 0
-95 -161 -173 -260 0
-95 -161 -186 -224 0
-95 -161 -202 -211 0
-95 -162 -183 -229 0
-95 -162 -185 -224 0
-95 -162 -196 -213 0
-95 -164 -187 -221 0
-101 -126 -206 -286 0
-101 -126 -207 -285 0
-101 -126 -225 -251 0
-101 -126 -226 -250 0
-101 -126 -227 -249 0
-101 -126 -228 -248 0
-101 -126 -229 -247 0
-101 -126 -230 -246 0
-101 -127 -205 -286 0
-101 -127 -208 -281 0
-101 -127 -222 -251 0
-101 -127 -223 -250 0
-101 -127 -224 -249 0
-101 -127 -228 -245 0
-101 -127 -229 -244 0
-101 -127 -230 -243 0
-101 -128 -205 -285 0
-101 -128 -221 -251 0
-101 -128 -223 -248 0
-101 -128 -224 -247 0
-101 -128 -226 -245 0
-101 -128 -227 -244 0
-101 -128 -230 -242 0
-101 -129 -206 -281 0
-101 -129 -221 -250 0
-101 -129 -222 -248 0
-101 -129 -224 -246 0
-101 -129 -225 -245 0
-101 -129 -227 -243 0
-101 -129 -229 -242 0
-101 -134 -178 -286 0
-101 -134 -179 -285 0
-101 -134 -197 -251 0
-101 -134 -198 -250 0
-101 -134 -199 -249 0
-101 -134 -200 -248 0
-101 -134 -201 -247 0
-101 -134 -202 -246 0
-101 -135 -177 -286 0
-101 -135 -179 -282 0
-101 -135 -194 -251 0
-101 -135 -195 -250 0
-101 -135 -196 -249 0
-101 -135 -200 -245 0
-101 -135 -201 -244 0
-101 -135 -202 -243 0
-101 -136 -177 -285 0
-101 -136 -193 -251 0
-101 -136 -195 -248 0
-101 -136 -196 -247 0
-101 -136 -198 -245 0
-101 -136 -199 -244 0
-101 -136 -202 -242 0
-101 -137 -193 -250 0
-101 -137 -194 -248 0
-101 -137 -196 -246 0
-101 -137 -197 -245 0
-101 -137 -199 -243 0
-101 -137 -201 -242 0
-101 -141 -171 -286 0
-101 -141 -172 -285 0
-101 -141 -197 -230 0
-101 -141 -198 -229 0
-101 -141 -199 -228 0
-101 -141 -200 -227 0
-101 -141 -201 -226 0
-101 -141 -202 -225 0
-101 -142 -170 -286 0
-101 -142 -194 -230 0
-101 -142 -195 -229 0
-101 -142 -196 -228 0
-101 -142 -200 -224 0
-101 -142 -201 -223 0
-101 -142 -202 -222 0
-101 -143 -170 -285 0
-101 -143 -193 -230 0
-101 -143 -195 -227 0
-101 -143 -196 -226 0
-101 -143 -198 -224 0
-101 -143 -199 -223 0
-101 -143 -202 -221 0
-101 -144 -193 -229 0
-101 -144 -196 -225 0
-101 -144 -197 -224 0
-101 -144 -199 -222 0
-101 -144 -201 -221 0
-101 -157 -167 -286 0
-101 -157 -173 -250 0
-101 -157 -179 -230 0
-101 -157 -180 -229 0
-101 -157 -201 -208 0
-101 -157 -202 -207 0
-101 -158 -167 -285 0
-101 -158 -171 -251 0
-101 -158 -173 -248 0
-101 -158 -178 -230 0
-101 -158 -180 -227 0
-101 -158 -199 -208 0
-101 -158 -202 -206 0
-101 -159 -167 -284 0
-101 -159 -171 -250 0
-101 -159 -172 -248 0
-101 -159 -178 -229 0
-101 -159 -179 -227 0
-101 -159 -199 -207 0
-101 -159 -201 -206 0
-101 -161 -167 -282 0
-101 -161 -170 -251 0
-101 -161 -173 -245 0
-101 -161 -177 -230 0
-101 -161 -180 -224 0
-101 -161 -196 -208 0
-101 -161 -202 -205 0
-101 -162 -167 -281 0
-101 -162 -170 -250 0
-101 -162 -172 -245 0
-101 -162 -177 -229 0
-101 -162 -179 -224 0
-101 -162 -196 -207 0
-101 -162 -201 -205 0
-101 -164 -167 -279 0
-101 -164 -170 -248 0
-101 -164 -171 -245 0
-101 -164 -177 -227 0
-101 -164 -178 -224 0
-101 -164 -196 -206 0
-101 -164 -199 -205 0
-112 -128 -203 -276 0
-112 -128 -214 -241 0
-112 -129 -203 -275 0
-112 -136 -186 -241 0
-112 -136 -191 -236 0
-112 -136 -192 -235 0
-112 -137 -187 -239 0
-112 -137 -192 -234 0
-112 -143 -169 -266 0
-112 -143 -191 -215 0
-112 -146 -167 -286 0
-112 -146 -172 -251 0
-112 -146 -173 -250 0
-112 -146 -174 -249 0
-112 -146 -179 -230 0
-112 -146 -180 -229 0
-112 -146 -181 -228 0
-112 -146 -200 -209 0
-112 -146 -201 -208 0
-112 -146 -202 -207 0
-112 -151 -167 -274 0
-112 -151 -169 -249 0
-112 -151 -173 -239 0
-112 -151 -176 -228 0
-112 -151 -179 -219 0
-112 -151 -190 -208 0
-112 -151 -200 -204 0
-112 -156 -167 -264 0
-112 -156 -168 -249 0
-112 -156 -173 -234 0
-112 -156 -175 -228 0
-112 -156 -180 -213 0
-112 -156 -185 -208 0
-112 -164 -167 -256 0
-112 -164 -168 -241 0
-112 -164 -169 -236 0
-112 -164 -175 -220 0
-112 -164 -176 -215 0
-112 -164 -187 -204 0
-112 -164 -192 -203 0
-113 -127 -208 -256 0
-113 -127 -214 -241 0
-113 -129 -203 -273 0
-113 -129 -204 -263 0
-113 -129 -206 -256 0
-113 -135 -175 -276 0
-113 -135 -176 -266 0
-113 -135 -180 -256 0
-113 -137 -175 -273 0
-113 -137 -176 -263 0
-113 -137 -178 -256 0
-113 -137 -184 -241 0
-113 -137 -192 -233 0
-113 -142 -173 -256 0
-113 -144 -168 -273 0
-113 -144 -169 -263 0
-113 -144 -171 -256 0
-113 -146 -167 -285 0
-113 -146 -171 -251 0
-113 -146 -173 -248 0
-113 -146 -174 -247 0
-113 -146 -178 -230 0
-113 -146 -180 -227 0
-113 -146 -181 -226 0
-113 -146 -198 -209 0
-113 -146 -199 -208 0
-113 -146 -202 -206 0
-113 -151 -167 -272 0
-113 -151 -169 -247 0
-113 -151 -171 -240 0
-113 -151 -173 -238 0
-113 -151 -176 -226 0
-113 -151 -178 -219 0
-113 -151 -180 -217 0
-113 -151 -189 -208 0
-113 -151 -191 -206 0
-113 -151 -198 -204 0
-113 -156 -167 -262 0
-113 -156 -168 -247 0
-113 -156 -171 -235 0
-113 -156 -173 -233 0
-113 -156 -175 -226 0
-113 -156 -178 -214 0
-113 -156 -180 -212 0
-113 -156 -184 -208 0
-113 -156 -186 -206 0
-113 -156 -198 -203 0
-113 -162 -167 -256 0
-113 -162 -187 -204 0
-114 -127 -207 -256 0
-114 -127 -213 -241 0
-114 -127 -218 -236 0
-114 -128 -217 -236 0
-114 -136 -189 -236 0
-114 -142 -168 -275 0
-114 -142 -169 -265 0
-114 -142 -172 -256 0
-114 -143 -168 -273 0
-114 -143 -169 -263 0
-114 -143 -189 -215 0
-114 -146 -167 -284 0
-114 -146 -171 -250 0
-114 -146 -172 -248 0
-114 -146 -174 -246 0
-114 -146 -178 -229 0
-114 -146 -179 -227 0
-114 -146 -181 -225 0
-114 -146 -197 -209 0
-114 -146 -199 -207 0
-114 -146 -201 -206 0
-114 -151 -167 -271 0
-114 -151 -169 -246 0
-114 -151 -172 -238 0
-114 -151 -176 -225 0
-114 -151 -178 -218 0
-114 -151 -189 -207 0
-114 -151 -190 -206 0
-114 -151 -197 -204 0
-114 -156 -167 -261 0
-114 -156 -168 -246 0
-114 -156 -172 -233 0
-114 -156 -175 -225 0
-114 -156 -179 -212 0
-114 -156 -184 -207 0
-114 -156 -185 -206 0
-114 -156 -197 -203 0
-114 -161 -167 -256 0
-114 -161 -192 -203 0
-115 -127 -203 -274 0
-115 -127 -204 -264 0
-115 -129 -203 -271 0
-115 -135 -175 -274 0
-115 -135 -176 -264 0
-115 -135 -186 -239 0
-115 -135 -191 -234 0
-115 -136 -186 -238 0
-115 -137 -175 -271 0
-115 -142 -168 -274 0
-115 -142 -169 -264 0
-115 -143 -184 -219 0
-115 -144 -168 -271 0
-115 -146 -171 -249 0
-115 -146 -172 -247 0
-115 -146 -173 -246 0
-115 -146 -178 -228 0
-115 -146 -179 -226 0
-115 -146 -180 -225 0
-115 -146 -197 -208 0
-115 -146 -198 -207 0
-115 -146 -200 -206 0
-115 -161 -167 -255 0
-115 -161 -175 -219 0
-115 -161 -186 -204 0
-115 -161 -191 -203 0
-115 -162 -167 -254 0
-115 -162 -175 -218 0
-115 -164 -167 -253 0
-116 -126 -214 -241 0
-116 -126 -215 -240 0
-116 -126 -219 -236 0
-116 -129 -216 -236 0
-116 -134 -180 -256 0
-116 -137 -175 -270 0
-116 -144 -196 -210 0
-116 -146 -167 -282 0
-116 -146 -170 -251 0
-116 -146 -173 -245 0
-116 -146 -174 -244 0
-116 -146 -177 -230 0
-116 -146 -180 -224 0
-116 -146 -181 -223 0
-116 -146 -195 -209 0
-116 -146 -196 -208 0
-116 -146 -202 -205 0
-116 -151 -167 -269 0
-116 -151 -169 -244 0
-116 -151 -170 -240 0
-116 -151 -173 -237 0
-116 -151 -176 -223 0
-116 -151 -177 -219 0
-116 -151 -180 -216 0
-116 -151 -188 -208 0
-116 -151 -195 -204 0
-116 -156 -167 -259 0
-116 -156 -168 -244 0
-116 -156 -170 -235 0
-116 -156 -173 -232 0
-116 -156 -175 -223 0
-116 -156 -177 -214 0
-116 -156 -180 -211 0
-116 -156 -183 -208 0
-116 -156 -186 -205 0
-116 -156 -195 -203 0
-116 -159 -167 -256 0
-117 -128 -205 -256 0
-117 -128 -220 -232 0
-117 -134 -175 -275 0
-117 -134 -179 -256 0
-117 -136 -183 -241 0
-117 -143 -168 -270 0
-117 -143 -169 -260 0
-117 -146 -167 -281 0
-117 -146 -170 -250 0
-117 -146 -172 -245 0
-117 -146 -174 -243 0
-117 -146 -177 -229 0
-117 -146 -179 -224 0
-117 -146 -181 -222 0
-117 -146 -194 -209 0
-117 -146 -196 -207 0
-117 -146 -201 -205 0
-117 -151 -167 -268 0
-117 -151 -169 -243 0
-117 -151 -170 -239 0
-117 -151 -172 -237 0
-117 -151 -176 -222 0
-117 -151 -177 -218 0
-117 -151 -179 -216 0
-117 -151 -188 -207 0
-117 -151 -190 -205 0
-117 -151 -194 -204 0
-117 -156 -167 -258 0
-117 -156 -168 -243 0
-117 -156 -170 -234 0
-117 -156 -172 -232 0
-117 -156 -175 -222 0
-117 -156 -177 -213 0
-117 -156 -179 -211 0
-117 -156 -183 -207 0
-117 -156 -185 -205 0
-117 -156 -194 -203 0
-117 -158 -167 -256 0
-118 -126 -203 -274 0
-118 -126 -204 -264 0
-118 -126 -219 -234 0
-118 -128 -204 -259 0
-118 -134 -186 -239 0
-118 -134 -191 -234 0
-118 -136 -175 -269 0
-118 -143 -168 -269 0
-118 -143 -186 -216 0
-118 -143 -191 -211 0
-118 -144 -168 -268 0
-118 -144 -169 -258 0
-118 -146 -170 -249 0
-118 -146 -172 -244 0
-118 -146 -173 -243 0
-118 -146 -177 -228 0
-118 -146 -179 -223 0
-118 -146 -180 -222 0
-118 -146 -194 -208 0
-118 -146 -195 -207 0
-118 -146 -200 -205 0
-118 -158 -175 -219 0
-118 -159 -167 -254 0
-118 -159 -168 -239 0
-118 -159 -175 -218 0
-118 -159 -185 -204 0
-118 -164 -167 -252 0
-119 -126 -212 -241 0
-119 -134 -187 -238 0
-119 -135 -175 -270 0
-119 -135 -187 -237 0
-119 -135 -188 -236 0
-119 -141 -187 -217 0
-119 -142 -170 -256 0
-119 -142 -187 -216 0
-119 -146 -167 -279 0
-119 -146 -170 -248 0
-119 -146 -171 -245 0
-119 -146 -174 -242 0
-119 -146 -177 -227 0
-119 -146 -178 -224 0
-119 -146 -181 -221 0
-119 -146 -193 -209 0
-119 -146 -196 -206 0
-119 -146 -199 -205 0
-119 -151 -167 -267 0
-119 -151 -169 -242 0
-119 -151 -170 -238 0
-119 -151 -176 -221 0
-119 -151 -177 -217 0
-119 -151 -193 -204 0
-119 -156 -167 -257 0
-119 -156 -168 -242 0
-119 -156 -170 -233 0
-119 -156 -171 -232 0
-119 -156 -175 -221 0
-119 -156 -193 -203 0
-119 -157 -167 -256 0
-119 -157 -187 -204 0
-120 -126 -206 -255 0
-120 -126 -210 -247 0
-120 -126 -212 -240 0
-120 -127 -203 -269 0
-120 -127 -204 -259 0
-120 -127 -210 -244 0
-120 -127 -211 -240 0
-120 -134 -175 -272 0
-120 -135 -175 -269 0
-120 -135 -176 -259 0
-120 -135 -186 -237 0
-120 -135 -191 -232 0
-120 -137 -175 -267 0
-120 -141 -168 -272 0
-120 -142 -168 -269 0
-120 -142 -169 -259 0
-120 -142 -186 -216 0
-120 -144 -168 -267 0
-120 -144 -169 -257 0
-120 -144 -188 -212 0
-120 -146 -170 -247 0
-120 -146 -171 -244 0
-120 -146 -173 -242 0
-120 -146 -177 -226 0
-120 -146 -178 -223 0
-120 -146 -180 -221 0
-120 -146 -193 -208 0
-120 -146 -195 -206 0
-120 -146 -198 -205 0
-120 -159 -167 -253 0
-120 -159 -168 -238 0
-120 -159 -169 -233 0
-120 -159 -175 -217 0
-120 -159 -176 -212 0
-120 -159 -184 -204 0
-120 -159 -189 -203 0
-120 -162 -169 -232 0
-120 -162 -175 -216 0
-121 -126 -203 -271 0
-121 -126 -204 -261 0
-121 -126 -210 -246 0
-121 -126 -213 -238 0
-121 -127 -222 -231 0
-121 -134 -175 -271 0
-121 -134 -176 -261 0
-121 -141 -168 -271 0
-121 -141 -169 -261 0
-121 -142 -168 -268 0
-121 -142 -169 -258 0
-121 -143 -168 -267 0
-121 -143 -169 -257 0
-121 -146 -170 -246 0
-121 -146 -171 -243 0
-121 -146 -172 -242 0
-121 -146 -177 -225 0
-121 -146 -178 -222 0
-121 -146 -179 -221 0
-121 -146 -193 -207 0
-121 -146 -194 -206 0
-121 -146 -197 -205 0
-121 -157 -167 -254 0
-121 -158 -168 -238 0
-121 -158 -169 -233 0
-121 -158 -175 -217 0
-121 -161 -167 -252 0
-121 -161 -168 -237 0
-121 -161 -169 -232 0
-121 -161 -175 -216 0
-121 -161 -176 -211 0
-121 -161 -183 -204 0
-121 -161 -188 -203 0
1 0
2 0
3 0
4 0
5 0
6 0
-7 0
-8 0
-9 0
-10 0
-11 0
12 0
13 0
14 0
-15 0
-16 0
17 0
18 0
19 0
20 0
-21 0
