p cnf 286 1280
-2 -3 -4 -22 -23 -31 0
-2 -3 -5 -22 -24 -32 0
-2 -3 -6 -22 -25 -33 0
-2 -4 -5 -23 -24 -39 0
-2 -4 -6 -23 -25 -40 0
-2 -5 -6 -24 -25 -46 0
-3 -4 -5 -31 -32 -39 0
-3 -4 -6 -31 -33 -40 0
-3 -5 -6 -32 -33 -46 0
-4 -5 -6 -39 -40 -46 0
7 8 9 57 58 61 0
7 8 10 57 59 62 0
7 8 11 57 60 63 0
7 9 10 58 59 64 0
7 9 11 58 60 65 0
7 10 11 59 60 66 0
8 9 10 61 62 64 0
8 9 11 61 63 65 0
8 10 11 62 63 66 0
9 10 11 64 65 66 0
12 13 14 22 23 31 0
12 13 15 22 24 32 0
12 13 16 22 25 33 0
12 13 17 22 26 34 0
12 13 18 22 27 35 0
12 13 19 22 28 36 0
12 13 20 22 29 37 0
12 13 21 22 30 38 0
12 14 15 23 24 39 0
12 14 16 23 25 40 0
12 14 17 23 26 41 0
12 14 18 23 27 42 0
12 14 19 23 28 43 0
12 14 20 23 29 44 0
12 14 21 23 30 45 0
12 15 16 24 25 46 0
12 15 17 24 26 47 0
12 15 18 24 27 48 0
12 15 19 24 28 49 0
12 15 20 24 29 50 0
12 15 21 24 30 51 0
12 16 17 25 26 52 0
12 16 18 25 27 53 0
12 16 19 25 28 54 0
12 16 20 25 29 55 0
12 16 21 25 30 56 0
12 17 18 26 27 57 0
12 17 19 26 28 58 0
12 17 20 26 29 59 0
12 17 21 26 30 60 0
12 18 19 27 28 61 0
12 18 20 27 29 62 0
12 18 21 27 30 63 0
12 19 20 28 29 64 0
12 19 21 28 30 65 0
12 20 21 29 30 66 0
13 14 15 31 32 39 0
13 14 16 31 33 40 0
13 14 17 31 34 41 0
13 14 18 31 35 42 0
13 14 19 31 36 43 0
13 14 20 31 37 44 0
13 14 21 31 38 45 0
13 15 16 32 33 46 0
13 15 17 32 34 47 0
13 15 18 32 35 48 0
13 15 19 32 36 49 0
13 15 20 32 37 50 0
13 15 21 32 38 51 0
13 16 17 33 34 52 0
13 16 18 33 35 53 0
13 16 19 33 36 54 0
13 16 20 33 37 55 0
13 16 21 33 38 56 0
13 17 18 34 35 57 0
13 17 19 34 36 58 0
13 17 20 34 37 59 0
13 17 21 34 38 60 0
13 18 19 35 36 61 0
13 18 20 35 37 62 0
13 18 21 35 38 63 0
13 19 20 36 37 64 0
13 19 21 36 38 65 0
13 20 21 37 38 66 0
14 15 16 39 40 46 0
14 15 17 39 41 47 0
14 15 18 39 42 48 0
14 15 19 39 43 49 0
14 15 20 39 44 50 0
14 15 21 39 45 51 0
14 16 17 40 41 52 0
14 16 18 40 42 53 0
14 16 19 40 43 54 0
14 16 20 40 44 55 0
14 16 21 40 45 56 0
14 17 19 41 43 58 0
14 17 20 41 44 59 0
14 17 21 41 45 60 0
14 18 19 42 43 61 0
14 18 20 42 44 62 0
14 18 21 42 45 63 0
14 19 20 43 44 64 0
14 19 21 43 45 65 0
14 20 21 44 45 66 0
15 16 17 46 47 52 0
15 16 18 46 48 53 0
15 16 19 46 49 54 0
15 16 20 46 50 55 0
15 16 21 46 51 56 0
15 17 18 47 48 57 0
15 17 19 47 49 58 0
15 17 20 47 50 59 0
15 17 21 47 51 60 0
15 18 19 48 49 61 0
15 18 20 48 50 62 0
15 18 21 48 51 63 0
15 19 20 49 50 64 0
15 19 21 49 51 65 0
15 20 21 50 51 66 0
16 17 18 52 53 57 0
16 17 19 52 54 58 0
16 17 20 52 55 59 0
16 17 21 52 56 60 0
16 18 19 53 54 61 0
16 18 20 53 55 62 0
16 18 21 53 56 63 0
16 19 20 54 55 64 0
16 19 21 54 56 65 0
16 20 21 55 56 66 0
-22 -26 -27 -34 -35 -57 0
-22 -26 -28 -34 -36 -58 0
-22 -26 -29 -34 -37 -59 0
-22 -26 -30 -34 -38 -60 0
-22 -27 -28 -35 -36 -61 0
-22 -27 -29 -35 -37 -62 0
-22 -27 -30 -35 -38 -63 0
-22 -28 -29 -36 -37 -64 0
-22 -28 -30 -36 -38 -65 0
-22 -29 -30 -37 -38 -66 0
-23 -26 -27 -41 -42 -57 0
-23 -26 -28 -41 -43 -58 0
-23 -26 -29 -41 -44 -59 0
-23 -26 -30 -41 -45 -60 0
-23 -27 -28 -42 -43 -61 0
-23 -27 -29 -42 -44 -62 0
-23 -27 -30 -42 -45 -63 0
-23 -28 -29 -43 -44 -64 0
-23 -28 -30 -43 -45 -65 0
-23 -29 -30 -44 -45 -66 0
-24 -26 -27 -47 -48 -57 0
-24 -26 -28 -47 -49 -58 0
-24 -26 -29 -47 -50 -59 0
-24 -26 -30 -47 -51 -60 0
-24 -27 -28 -48 -49 -61 0
-24 -27 -29 -48 -50 -62 0
-24 -27 -30 -48 -51 -63 0
-24 -28 -29 -49 -50 -64 0
-24 -28 -30 -49 -51 -65 0
-24 -29 -30 -50 -51 -66 0
-25 -26 -28 -52 -54 -58 0
-25 -26 -29 -52 -55 -59 0
-25 -26 -30 -52 -56 -60 0
-25 -27 -29 -53 -55 -62 0
-25 -27 -30 -53 -56 -63 0
-25 -28 -29 -54 -55 -64 0
-25 -28 -30 -54 -56 -65 0
-25 -29 -30 -55 -56 -66 0
-26 -27 -28 -57 -58 -61 0
-26 -27 -29 -57 -59 -62 0
-26 -27 -30 -57 -60 -63 0
-26 -28 -29 -58 -59 -64 0
-26 -28 -30 -58 -60 -65 0
-26 -29 -30 -59 -60 -66 0
-27 -28 -29 -61 -62 -64 0
-27 -28 -30 -61 -63 -65 0
-27 -29 -30 -62 -63 -66 0
-28 -29 -30 -64 -65 -66 0
-31 -34 -36 -41 -43 -58 0
-31 -34 -37 -41 -44 -59 0
-31 -34 -38 -41 -45 -60 0
-31 -35 -36 -42 -43 -61 0
-31 -35 -37 -42 -44 -62 0
-31 -35 -38 -42 -45 -63 0
-31 -36 -37 -43 -44 -64 0
-31 -37 -38 -44 -45 -66 0
-32 -34 -35 -47 -48 -57 0
-32 -34 -36 -47 -49 -58 0
-32 -34 -37 -47 -50 -59 0
-32 -34 -38 -47 -51 -60 0
-32 -35 -36 -48 -49 -61 0
-32 -35 -37 -48 -50 -62 0
-32 -35 -38 -48 -51 -63 0
-32 -36 -37 -49 -50 -64 0
-32 -36 -38 -49 -51 -65 0
-32 -37 -38 -50 -51 -66 0
-33 -34 -36 -52 -54 -58 0
-33 -34 -38 -52 -56 -60 0
-33 -35 -37 -53 -55 -62 0
-33 -35 -38 -53 -56 -63 0
-33 -36 -38 -54 -56 -65 0
-33 -37 -38 -55 -56 -66 0
-34 -35 -36 -57 -58 -61 0
-34 -35 -37 -57 -59 -62 0
-34 -35 -38 -57 -60 -63 0
-34 -36 -37 -58 -59 -64 0
-34 -36 -38 -58 -60 -65 0
-34 -37 -38 -59 -60 -66 0
-35 -36 -37 -61 -62 -64 0
-35 -36 -38 -61 -63 -65 0
-35 -37 -38 -62 -63 -66 0
-36 -37 -38 -64 -65 -66 0
-39 -41 -42 -47 -48 -57 0
-39 -41 -43 -47 -49 -58 0
-39 -41 -44 -47 -50 -59 0
-39 -41 -45 -47 -51 -60 0
-39 -42 -43 -48 -49 -61 0
-39 -42 -44 -48 -50 -62 0
-39 -42 -45 -48 -51 -63 0
-39 -43 -44 -49 -50 -64 0
-39 -43 -45 -49 -51 -65 0
-39 -44 -45 -50 -51 -66 0
-40 -41 -42 -52 -53 -57 0
-40 -41 -43 -52 -54 -58 0
-40 -41 -45 -52 -56 -60 0
-40 -42 -44 -53 -55 -62 0
-40 -42 -45 -53 -56 -63 0
-40 -43 -45 -54 -56 -65 0
-40 -44 -45 -55 -56 -66 0
-41 -43 -44 -58 -59 -64 0
-42 -44 -45 -62 -63 -66 0
-46 -47 -48 -52 -53 -57 0
-46 -47 -49 -52 -54 -58 0
-46 -47 -50 -52 -55 -59 0
-46 -47 -51 -52 -56 -60 0
-46 -48 -49 -53 -54 -61 0
-46 -48 -50 -53 -55 -62 0
-46 -48 -51 -53 -56 -63 0
-46 -49 -50 -54 -55 -64 0
-46 -49 -51 -54 -56 -65 0
-46 -50 -51 -55 -56 -66 0
-47 -48 -49 -57 -58 -61 0
-47 -48 -50 -57 -59 -62 0
-47 -48 -51 -57 -60 -63 0
-47 -49 -50 -58 -59 -64 0
-47 -49 -51 -58 -60 -65 0
-47 -50 -51 -59 -60 -66 0
-48 -49 -50 -61 -62 -64 0
-48 -49 -51 -61 -63 -65 0
-48 -50 -51 -62 -63 -66 0
-49 -50 -51 -64 -65 -66 0
-52 -53 -54 -57 -58 -61 0
-52 -54 -55 -58 -59 -64 0
-57 -58 -59 -61 -62 -64 0
-57 -58 -60 -61 -63 -65 0
-57 -59 -60 -62 -63 -66 0
-58 -59 -60 -64 -65 -66 0
-61 -62 -63 -64 -65 -66 0
77 -2 -3 -22 0
78 -2 -4 -23 0
79 -2 -5 -24 0
80 -2 -6 -25 0
86 -3 -4 -31 0
87 -3 -5 -32 0
88 -3 -6 -33 0
94 -4 -5 -39 0
95 -4 -6 -40 0
101 -5 -6 -46 0
112 7 8 57 0
113 7 9 58 0
114 7 10 59 0
115 7 11 60 0
116 8 9 61 0
117 8 10 62 0
118 8 11 63 0
119 9 10 64 0
120 9 11 65 0
121 10 11 66 0
122 12 13 22 0
123 12 14 23 0
124 12 15 24 0
125 12 16 25 0
126 12 17 26 0
127 12 18 27 0
128 12 19 28 0
129 12 20 29 0
130 12 21 30 0
131 13 14 31 0
132 13 15 32 0
133 13 16 33 0
134 13 17 34 0
135 13 18 35 0
136 13 19 36 0
137 13 20 37 0
138 13 21 38 0
139 14 15 39 0
140 14 16 40 0
141 14 17 41 0
142 14 18 42 0
143 14 19 43 0
144 14 20 44 0
145 14 21 45 0
146 15 16 46 0
147 15 17 47 0
148 15 18 48 0
149 15 19 49 0
150 15 20 50 0
151 15 21 51 0
152 16 17 52 0
153 16 18 53 0
154 16 19 54 0
155 16 20 55 0
156 16 21 56 0
157 17 18 57 0
158 17 19 58 0
159 17 20 59 0
160 17 21 60 0
161 18 19 61 0
162 18 20 62 0
163 18 21 63 0
164 19 20 64 0
165 19 21 65 0
166 20 21 66 0
168 -22 -24 -32 0
170 -22 -26 -34 0
171 -22 -27 -35 0
172 -22 -28 -36 0
173 -22 -29 -37 0
174 -22 -30 -38 0
177 -23 -26 -41 0
178 -23 -27 -42 0
179 -23 -28 -43 0
180 -23 -29 -44 0
181 -23 -30 -45 0
181 23 30 45 0
183 -24 -26 -47 0
184 -24 -27 -48 0
185 -24 -28 -49 0
186 -24 -29 -50 0
187 -24 -30 -51 0
188 -25 -26 -52 0
189 -25 -27 -53 0
190 -25 -28 -54 0
191 -25 -29 -55 0
192 -25 -30 -56 0
193 -26 -27 -57 0
194 -26 -28 -58 0
195 -26 -29 -59 0
196 -26 -30 -60 0
197 -27 -28 -61 0
198 -27 -29 -62 0
199 -27 -30 -63 0
200 -28 -29 -64 0
201 -28 -30 -65 0
201 28 30 65 0
202 -29 -30 -66 0
205 -31 -34 -41 0
206 -31 -35 -42 0
207 -31 -36 -43 0
208 -31 -37 -44 0
209 -31 -38 -45 0
211 -32 -34 -47 0
212 -32 -35 -48 0
213 -32 -36 -49 0
214 -32 -37 -50 0
215 -32 -38 -51 0
216 -33 -34 -52 0
217 -33 -35 -53 0
218 -33 -36 -54 0
219 -33 -37 -55 0
220 -33 -38 -56 0
220 33 38 56 0
221 -34 -35 -57 0
222 -34 -36 -58 0
223 -34 -37 -59 0
224 -34 -38 -60 0
225 -35 -36 -61 0
225 35 36 61 0
226 -35 -37 -62 0
227 -35 -38 -63 0
228 -36 -37 -64 0
229 -36 -38 -65 0
230 -37 -38 -66 0
232 -39 -41 -47 0
233 -39 -42 -48 0
234 -39 -43 -49 0
235 -39 -44 -50 0
236 -39 -45 -51 0
237 -40 -41 -52 0
238 -40 -42 -53 0
239 -40 -43 -54 0
240 -40 -44 -55 0
241 -40 -45 -56 0
243 -41 -43 -58 0
244 -41 -44 -59 0
245 -41 -45 -60 0
247 -42 -44 -62 0
248 -42 -45 -63 0
249 -43 -44 -64 0
249 43 44 64 0
250 -43 -45 -65 0
251 -44 -45 -66 0
252 -46 -47 -52 0
253 -46 -48 -53 0
254 -46 -49 -54 0
255 -46 -50 -55 0
256 -46 -51 -56 0
257 -47 -48 -57 0
258 -47 -49 -58 0
259 -47 -50 -59 0
260 -47 -51 -60 0
261 -48 -49 -61 0
262 -48 -50 -62 0
263 -48 -51 -63 0
264 -49 -50 -64 0
265 -49 -51 -65 0
266 -50 -51 -66 0
267 -52 -53 -57 0
268 -52 -54 -58 0
269 -52 -55 -59 0
270 -52 -56 -60 0
271 -53 -54 -61 0
272 -53 -55 -62 0
273 -53 -56 -63 0
274 -54 -55 -64 0
275 -54 -56 -65 0
276 -55 -56 -66 0
277 -57 -58 -61 0
278 -57 -59 -62 0
279 -57 -60 -63 0
280 -58 -59 -64 0
281 -58 -60 -65 0
282 -59 -60 -66 0
283 -61 -62 -64 0
284 -61 -63 -65 0
285 -62 -63 -66 0
286 -64 -65 -66 0
-77 -140 -257 -286 0
-77 -140 -258 -285 0
-77 -140 -259 -284 0
-77 -140 -260 -283 0
-77 -140 -261 -282 0
-77 -140 -262 -281 0
-77 -140 -263 -280 0
-77 -140 -264 -279 0
-77 -140 -265 -278 0
-77 -140 -266 -277 0
-77 -142 -256 -280 0
-77 -145 -253 -280 0
-77 -148 -241 -280 0
-77 -151 -238 -280 0
-77 -156 -235 -277 0
-77 -158 -233 -276 0
-77 -158 -236 -272 0
-77 -158 -240 -263 0
-77 -158 -241 -262 0
-77 -158 -247 -256 0
-77 -158 -248 -255 0
-77 -158 -251 -253 0
-77 -161 -237 -266 0
-77 -162 -232 -275 0
-77 -162 -241 -258 0
-77 -162 -243 -256 0
-77 -163 -249 -252 0
-78 -133 -261 -282 0
-78 -133 -262 -281 0
-78 -133 -266 -277 0
-78 -138 -253 -280 0
-78 -138 -255 -277 0
-78 -146 -229 -278 0
-78 -148 -220 -280 0
-78 -153 -215 -280 0
-78 -156 -211 -283 0
-78 -156 -212 -280 0
-78 -156 -214 -277 0
-78 -157 -214 -275 0
-78 -158 -212 -276 0
-78 -158 -214 -273 0
-78 -158 -219 -263 0
-78 -158 -220 -262 0
-78 -158 -226 -256 0
-78 -158 -230 -253 0
-78 -161 -214 -270 0
-78 -162 -211 -275 0
-78 -162 -215 -268 0
-78 -162 -216 -265 0
-78 -162 -218 -260 0
-78 -162 -222 -256 0
-78 -165 -216 -262 0
-78 -166 -216 -261 0
-78 -166 -217 -258 0
-79 -136 -237 -285 0
-79 -136 -241 -278 0
-79 -140 -221 -286 0
-79 -140 -222 -285 0
-79 -140 -223 -284 0
-79 -140 -224 -283 0
-79 -140 -225 -282 0
-79 -140 -226 -281 0
-79 -140 -227 -280 0
-79 -140 -228 -279 0
-79 -140 -229 -278 0
-79 -140 -230 -277 0
-79 -160 -225 -240 0
-80 -131 -260 -283 0
-80 -135 -236 -280 0
-80 -141 -215 -283 0
-80 -143 -221 -266 0
-80 -144 -215 -277 0
-80 -144 -222 -263 0
-80 -147 -207 -285 0
-80 -150 -205 -284 0
-80 -150 -209 -277 0
-80 -151 -208 -277 0
-80 -157 -209 -264 0
-80 -157 -228 -236 0
-80 -158 -206 -266 0
-80 -158 -208 -263 0
-80 -158 -209 -262 0
-80 -158 -212 -251 0
-80 -158 -214 -248 0
-80 -158 -215 -247 0
-80 -158 -226 -236 0
-80 -158 -227 -235 0
-80 -161 -209 -259 0
-80 -161 -211 -251 0
-80 -161 -215 -244 0
-80 -162 -222 -236 0
-80 -163 -222 -235 0
-80 -166 -212 -243 0
-80 -166 -222 -233 0
-86 -125 -264 -279 0
-86 -126 -253 -286 0
-86 -127 -256 -280 0
-86 -128 -253 -282 0
-86 -128 -256 -278 0
-86 -128 -260 -272 0
-86 -130 -255 -277 0
-86 -150 -192 -277 0
-86 -151 -194 -272 0
-86 -157 -191 -265 0
-86 -157 -192 -264 0
-86 -157 -200 -256 0
-86 -158 -191 -263 0
-86 -158 -202 -253 0
-86 -161 -191 -260 0
-86 -161 -195 -256 0
-86 -162 -192 -258 0
-86 -162 -194 -256 0
-86 -166 -194 -253 0
-87 -126 -250 -272 0
-87 -127 -241 -280 0
-87 -128 -241 -278 0
-87 -128 -245 -272 0
-87 -130 -238 -280 0
-87 -140 -193 -286 0
-87 -140 -194 -285 0
-87 -140 -195 -284 0
-87 -140 -196 -283 0
-87 -140 -197 -282 0
-87 -140 -198 -281 0
-87 -140 -199 -280 0
-87 -140 -200 -279 0
-87 -140 -201 -278 0
-87 -140 -202 -277 0
-87 -141 -190 -285 0
-87 -141 -191 -284 0
-87 -142 -192 -280 0
-87 -145 -194 -272 0
-87 -145 -195 -271 0
-87 -145 -198 -268 0
-87 -145 -200 -267 0
-87 -152 -179 -285 0
-87 -153 -181 -280 0
-87 -155 -181 -277 0
-87 -155 -194 -248 0
-87 -156 -180 -277 0
-87 -156 -194 -247 0
-87 -156 -198 -243 0
-87 -157 -181 -274 0
-87 -158 -181 -272 0
-87 -158 -192 -247 0
-87 -158 -198 -241 0
-87 -158 -202 -238 0
-87 -161 -181 -269 0
-87 -162 -194 -241 0
-87 -163 -180 -268 0
-87 -163 -194 -240 0
-87 -166 -189 -243 0
-87 -166 -194 -238 0
-88 -127 -244 -265 0
-88 -144 -194 -263 0
-88 -144 -196 -261 0
-88 -158 -181 -262 0
-88 -158 -198 -236 0
-88 -158 -202 -233 0
-88 -160 -179 -262 0
-88 -162 -194 -236 0
-88 -163 -180 -258 0
-88 -163 -194 -235 0
-88 -165 -198 -232 0
-88 -166 -178 -258 0
-88 -166 -194 -233 0
-94 -126 -220 -283 0
-94 -129 -218 -279 0
-94 -133 -193 -286 0
-94 -133 -194 -285 0
-94 -133 -195 -284 0
-94 -133 -198 -281 0
-94 -133 -199 -280 0
-94 -133 -202 -277 0
-94 -135 -194 -276 0
-94 -137 -192 -277 0
-94 -137 -194 -273 0
-94 -138 -194 -272 0
-94 -156 -173 -277 0
-94 -156 -194 -226 0
-94 -158 -171 -276 0
-94 -158 -173 -273 0
-94 -158 -174 -272 0
-94 -158 -198 -220 0
-94 -158 -199 -219 0
-94 -158 -202 -217 0
-94 -159 -190 -227 0
-94 -159 -197 -220 0
-94 -160 -198 -218 0
-94 -162 -190 -224 0
-94 -162 -194 -220 0
-94 -162 -201 -216 0
-94 -163 -173 -268 0
-94 -163 -194 -219 0
-94 -164 -188 -227 0
-94 -165 -198 -216 0
-94 -166 -194 -217 0
-95 -122 -257 -286 0
-95 -122 -258 -285 0
-95 -122 -259 -284 0
-95 -122 -260 -283 0
-95 -122 -261 -282 0
-95 -122 -262 -281 0
-95 -122 -263 -280 0
-95 -122 -264 -279 0
-95 -122 -265 -278 0
-95 -122 -266 -277 0
-95 -124 -227 -280 0
-95 -126 -212 -286 0
-95 -126 -213 -285 0
-95 -126 -214 -284 0
-95 -126 -215 -283 0
-95 -126 -225 -266 0
-95 -126 -226 -265 0
-95 -126 -227 -264 0
-95 -126 -228 -263 0
-95 -126 -229 -262 0
-95 -126 -230 -261 0
-95 -127 -211 -286 0
-95 -127 -213 -282 0
-95 -127 -214 -281 0
-95 -127 -215 -280 0
-95 -127 -222 -266 0
-95 -127 -223 -265 0
-95 -127 -224 -264 0
-95 -127 -228 -260 0
-95 -127 -229 -259 0
-95 -127 -230 -258 0
-95 -128 -211 -285 0
-95 -128 -212 -282 0
-95 -128 -214 -279 0
-95 -128 -215 -278 0
-95 -128 -221 -266 0
-95 -128 -223 -263 0
-95 -128 -224 -262 0
-95 -128 -226 -260 0
-95 -128 -227 -259 0
-95 -128 -230 -257 0
-95 -129 -211 -284 0
-95 -129 -212 -281 0
-95 -129 -213 -279 0
-95 -129 -215 -277 0
-95 -129 -221 -265 0
-95 -129 -222 -263 0
-95 -129 -224 -261 0
-95 -129 -225 -260 0
-95 -129 -227 -258 0
-95 -129 -229 -257 0
-95 -130 -211 -283 0
-95 -130 -212 -280 0
-95 -130 -213 -278 0
-95 -130 -214 -277 0
-95 -130 -221 -264 0
-95 -130 -222 -262 0
-95 -130 -223 -261 0
-95 -130 -225 -259 0
-95 -130 -226 -258 0
-95 -130 -228 -257 0
-95 -132 -193 -286 0
-95 -132 -194 -285 0
-95 -132 -195 -284 0
-95 -132 -196 -283 0
-95 -132 -197 -282 0
-95 -132 -198 -281 0
-95 -132 -199 -280 0
-95 -132 -200 -279 0
-95 -132 -201 -278 0
-95 -132 -202 -277 0
-95 -134 -184 -286 0
-95 -134 -185 -285 0
-95 -134 -186 -284 0
-95 -134 -187 -283 0
-95 -134 -197 -266 0
-95 -134 -198 -265 0
-95 -134 -199 -264 0
-95 -134 -200 -263 0
-95 -134 -201 -262 0
-95 -134 -202 -261 0
-95 -135 -183 -286 0
-95 -135 -185 -282 0
-95 -135 -186 -281 0
-95 -135 -187 -280 0
-95 -135 -194 -266 0
-95 -135 -195 -265 0
-95 -135 -196 -264 0
-95 -135 -200 -260 0
-95 -135 -201 -259 0
-95 -136 -183 -285 0
-95 -136 -184 -282 0
-95 -136 -186 -279 0
-95 -136 -187 -278 0
-95 -136 -193 -266 0
-95 -136 -195 -263 0
-95 -136 -196 -262 0
-95 -136 -198 -260 0
-95 -136 -199 -259 0
-95 -136 -202 -257 0
-95 -137 -183 -284 0
-95 -137 -184 -281 0
-95 -137 -185 -279 0
-95 -137 -187 -277 0
-95 -137 -193 -265 0
-95 -137 -194 -263 0
-95 -137 -196 -261 0
-95 -137 -197 -260 0
-95 -137 -199 -258 0
-95 -137 -201 -257 0
-95 -138 -183 -283 0
-95 -138 -184 -280 0
-95 -138 -185 -278 0
-95 -138 -186 -277 0
-95 -138 -193 -264 0
-95 -138 -194 -262 0
-95 -138 -195 -261 0
-95 -138 -197 -259 0
-95 -138 -198 -258 0
-95 -138 -200 -257 0
-95 -147 -172 -285 0
-95 -147 -174 -283 0
-95 -147 -197 -230 0
-95 -147 -198 -229 0
-95 -147 -199 -228 0
-95 -147 -200 -227 0
-95 -147 -201 -226 0
-95 -147 -202 -225 0
-95 -148 -170 -286 0
-95 -148 -173 -281 0
-95 -148 -174 -280 0
-95 -148 -194 -230 0
-95 -148 -195 -229 0
-95 -148 -196 -228 0
-95 -148 -200 -224 0
-95 -148 -201 -223 0
-95 -148 -202 -222 0
-95 -149 -170 -285 0
-95 -149 -174 -278 0
-95 -149 -193 -230 0
-95 -149 -195 -227 0
-95 -149 -196 -226 0
-95 -149 -198 -224 0
-95 -149 -199 -223 0
-95 -149 -202 -221 0
-95 -150 -170 -284 0
-95 -150 -171 -281 0
-95 -150 -174 -277 0
-95 -150 -193 -229 0
-95 -150 -194 -227 0
-95 -150 -196 -225 0
-95 -150 -197 -224 0
-95 -150 -199 -222 0
-95 -150 -201 -221 0
-95 -151 -170 -283 0
-95 -151 -172 -278 0
-95 -151 -173 -277 0
-95 -151 -193 -228 0
-95 -151 -194 -226 0
-95 -151 -195 -225 0
-95 -151 -197 -223 0
-95 -151 -198 -222 0
-95 -151 -200 -221 0
-95 -157 -173 -265 0
-95 -157 -174 -264 0
-95 -157 -185 -230 0
-95 -157 -186 -229 0
-95 -157 -187 -228 0
-95 -157 -200 -215 0
-95 -157 -201 -214 0
-95 -157 -202 -213 0
-95 -158 -171 -266 0
-95 -158 -173 -263 0
-95 -158 -174 -262 0
-95 -158 -184 -230 0
-95 -158 -186 -227 0
-95 -158 -187 -226 0
-95 -158 -198 -215 0
-95 -158 -199 -214 0
-95 -158 -202 -212 0
-95 -159 -171 -265 0
-95 -159 -172 -263 0
-95 -159 -174 -261 0
-95 -159 -184 -229 0
-95 -159 -185 -227 0
-95 -159 -187 -225 0
-95 -159 -197 -215 0
-95 -159 -199 -213 0
-95 -159 -201 -212 0
-95 -160 -172 -262 0
-95 -160 -173 -261 0
-95 -160 -184 -228 0
-95 -160 -185 -226 0
-95 -160 -186 -225 0
-95 -160 -197 -214 0
-95 -160 -198 -213 0
-95 -160 -200 -212 0
-95 -161 -170 -266 0
-95 -161 -173 -260 0
-95 -161 -174 -259 0
-95 -161 -183 -230 0
-95 -161 -186 -224 0
-95 -161 -187 -223 0
-95 -161 -195 -215 0
-95 -161 -196 -214 0
-95 -161 -202 -211 0
-95 -162 -170 -265 0
-95 -162 -174 -258 0
-95 -162 -183 -229 0
-95 -162 -185 -224 0
-95 -162 -187 -222 0
-95 -162 -194 -215 0
-95 -162 -196 -213 0
-95 -162 -201 -211 0
-95 -163 -170 -264 0
-95 -163 -173 -258 0
-95 -163 -183 -228 0
-95 -163 -185 -223 0
-95 -163 -186 -222 0
-95 -163 -194 -214 0
-95 -163 -195 -213 0
-95 -163 -200 -211 0
-95 -164 -170 -263 0
-95 -164 -171 -260 0
-95 -164 -174 -257 0
-95 -164 -183 -227 0
-95 -164 -184 -224 0
-95 -164 -187 -221 0
-95 -164 -193 -215 0
-95 -164 -196 -212 0
-95 -164 -199 -211 0
-95 -165 -168 -278 0
-95 -165 -170 -262 0
-95 -165 -171 -259 0
-95 -165 -173 -257 0
-95 -165 -183 -226 0
-95 -165 -184 -223 0
-95 -165 -186 -221 0
-95 -165 -193 -214 0
-95 -165 -195 -212 0
-95 -165 -198 -211 0
-95 -166 -170 -261 0
-95 -166 -171 -258 0
-95 -166 -172 -257 0
-95 -166 -183 -225 0
-95 -166 -184 -222 0
-95 -166 -185 -221 0
-95 -166 -193 -213 0
-95 -166 -194 -212 0
-95 -166 -197 -211 0
-101 -123 -222 -285 0
-101 -129 -209 -277 0
-101 -130 -208 -277 0
-101 -131 -194 -285 0
-101 -131 -198 -281 0
-101 -131 -199 -280 0
-101 -134 -180 -284 0
-101 -134 -181 -283 0
-101 -135 -181 -280 0
-101 -135 -194 -251 0
-101 -137 -181 -277 0
-101 -137 -194 -248 0
-101 -138 -194 -247 0
-101 -142 -174 -280 0
-101 -144 -194 -227 0
-101 -144 -199 -222 0
-101 -145 -173 -277 0
-101 -145 -194 -226 0
-101 -157 -172 -251 0
-101 -157 -201 -208 0
-101 -158 -171 -251 0
-101 -158 -173 -248 0
-101 -158 -174 -247 0
-101 -158 -180 -227 0
-101 -158 -181 -226 0
-101 -158 -199 -208 0
-101 -158 -202 -206 0
-101 -162 -194 -209 0
-101 -163 -194 -208 0
-101 -164 -193 -209 0
-112 -124 -209 -274 0
-112 -128 -208 -256 0
-112 -128 -209 -255 0
-112 -128 -214 -241 0
-112 -128 -219 -236 0
-112 -132 -192 -249 0
-112 -133 -179 -266 0
-112 -133 -202 -234 0
-112 -136 -191 -236 0
-112 -136 -192 -235 0
-112 -137 -185 -241 0
-112 -138 -179 -255 0
-112 -138 -185 -240 0
-112 -140 -172 -266 0
-112 -140 -173 -265 0
-112 -140 -174 -264 0
-112 -140 -185 -230 0
-112 -140 -186 -229 0
-112 -140 -187 -228 0
-112 -140 -200 -215 0
-112 -140 -201 -214 0
-112 -140 -202 -213 0
-112 -143 -173 -256 0
-112 -143 -174 -255 0
-112 -143 -191 -215 0
-112 -143 -192 -214 0
-112 -144 -190 -215 0
-112 -145 -173 -254 0
-112 -149 -191 -209 0
-112 -149 -192 -208 0
-112 -151 -190 -208 0
-112 -151 -191 -207 0
-112 -154 -173 -236 0
-112 -154 -174 -235 0
-112 -154 -181 -214 0
-112 -155 -174 -234 0
-112 -156 -173 -234 0
-113 -122 -247 -256 0
-113 -123 -212 -276 0
-113 -123 -226 -256 0
-113 -123 -227 -255 0
-113 -123 -230 -253 0
-113 -124 -206 -276 0
-113 -124 -208 -273 0
-113 -124 -217 -251 0
-113 -124 -219 -248 0
-113 -124 -220 -247 0
-113 -124 -226 -241 0
-113 -124 -230 -238 0
-113 -125 -215 -247 0
-113 -125 -226 -236 0
-113 -127 -208 -256 0
-113 -127 -209 -255 0
-113 -127 -215 -240 0
-113 -127 -219 -236 0
-113 -129 -206 -256 0
-113 -129 -212 -241 0
-113 -129 -215 -238 0
-113 -129 -217 -236 0
-113 -129 -220 -233 0
-113 -130 -206 -255 0
-113 -130 -208 -253 0
-113 -130 -214 -238 0
-113 -130 -219 -233 0
-113 -131 -189 -266 0
-113 -131 -192 -262 0
-113 -131 -198 -256 0
-113 -131 -199 -255 0
-113 -131 -202 -253 0
-113 -132 -180 -273 0
-113 -132 -181 -272 0
-113 -133 -178 -266 0
-113 -133 -180 -263 0
-113 -133 -181 -262 0
-113 -133 -198 -236 0
-113 -133 -199 -235 0
-113 -133 -202 -233 0
-113 -135 -180 -256 0
-113 -135 -181 -255 0
-113 -135 -191 -236 0
-113 -135 -192 -235 0
-113 -137 -178 -256 0
-113 -137 -181 -253 0
-113 -137 -184 -241 0
-113 -137 -189 -236 0
-113 -137 -192 -233 0
-113 -138 -180 -253 0
-113 -138 -191 -233 0
-113 -139 -171 -276 0
-113 -139 -173 -273 0
-113 -139 -189 -230 0
-113 -140 -171 -266 0
-113 -140 -173 -263 0
-113 -140 -174 -262 0
-113 -140 -184 -230 0
-113 -140 -186 -227 0
-113 -140 -187 -226 0
-113 -140 -198 -215 0
-113 -140 -199 -214 0
-113 -140 -202 -212 0
-113 -142 -173 -256 0
-113 -142 -174 -255 0
-113 -142 -191 -215 0
-113 -142 -192 -214 0
-113 -144 -171 -256 0
-113 -144 -174 -253 0
-113 -144 -189 -215 0
-113 -144 -192 -212 0
-113 -145 -171 -255 0
-113 -145 -173 -253 0
-113 -145 -189 -214 0
-113 -145 -191 -212 0
-113 -146 -171 -251 0
-113 -146 -173 -248 0
-113 -146 -174 -247 0
-113 -148 -173 -241 0
-113 -148 -174 -240 0
-113 -148 -180 -220 0
-113 -148 -181 -219 0
-113 -148 -191 -209 0
-113 -148 -192 -208 0
-113 -150 -171 -241 0
-113 -150 -174 -238 0
-113 -150 -178 -220 0
-113 -150 -181 -217 0
-113 -150 -189 -209 0
-113 -151 -171 -240 0
-113 -151 -173 -238 0
-113 -151 -178 -219 0
-113 -151 -189 -208 0
-113 -151 -191 -206 0
-113 -153 -173 -236 0
-113 -153 -174 -235 0
-113 -153 -181 -214 0
-113 -155 -171 -236 0
-113 -155 -174 -233 0
-113 -155 -178 -215 0
-113 -155 -181 -212 0
-113 -156 -171 -235 0
-113 -156 -173 -233 0
-113 -156 -178 -214 0
-113 -156 -180 -212 0
-114 -127 -218 -236 0
-114 -128 -206 -256 0
-114 -128 -209 -253 0
-114 -128 -212 -241 0
-114 -128 -215 -238 0
-114 -128 -217 -236 0
-114 -128 -220 -233 0
-114 -133 -181 -261 0
-114 -133 -199 -234 0
-114 -140 -171 -265 0
-114 -140 -172 -263 0
-114 -140 -174 -261 0
-114 -140 -184 -229 0
-114 -140 -185 -227 0
-114 -140 -187 -225 0
-114 -140 -197 -215 0
-114 -140 -199 -213 0
-114 -140 -201 -212 0
-114 -149 -171 -241 0
-114 -153 -181 -213 0
-115 -128 -206 -255 0
-115 -128 -219 -233 0
-115 -133 -180 -261 0
-115 -133 -198 -234 0
-115 -140 -172 -262 0
-115 -140 -173 -261 0
-115 -140 -184 -228 0
-115 -140 -185 -226 0
-115 -140 -186 -225 0
-115 -140 -197 -214 0
-115 -140 -198 -213 0
-115 -140 -200 -212 0
-115 -149 -171 -240 0
-115 -149 -173 -238 0
-116 -126 -208 -256 0
-116 -126 -209 -255 0
-116 -126 -219 -236 0
-116 -126 -220 -235 0
-116 -129 -216 -236 0
-116 -131 -188 -266 0
-116 -132 -188 -251 0
-116 -132 -192 -244 0
-116 -132 -202 -237 0
-116 -133 -177 -266 0
-116 -133 -202 -232 0
-116 -134 -187 -240 0
-116 -134 -192 -235 0
-116 -137 -183 -241 0
-116 -138 -183 -240 0
-116 -138 -186 -237 0
-116 -140 -170 -266 0
-116 -140 -173 -260 0
-116 -140 -183 -230 0
-116 -140 -186 -224 0
-116 -140 -187 -223 0
-116 -140 -195 -215 0
-116 -140 -196 -214 0
-116 -140 -202 -211 0
-116 -141 -173 -256 0
-116 -141 -174 -255 0
-116 -141 -191 -215 0
-116 -144 -188 -215 0
-116 -145 -173 -252 0
-116 -145 -188 -214 0
-116 -146 -177 -230 0
-116 -147 -173 -241 0
-116 -147 -191 -209 0
-116 -147 -192 -208 0
-116 -150 -188 -209 0
-116 -151 -188 -208 0
-116 -151 -191 -205 0
-116 -152 -173 -236 0
-116 -152 -174 -235 0
-116 -152 -181 -214 0
-116 -155 -174 -232 0
-116 -156 -173 -232 0
-117 -122 -234 -270 0
-117 -124 -216 -250 0
-117 -126 -218 -236 0
-117 -128 -220 -232 0
-117 -130 -211 -239 0
-117 -130 -216 -234 0
-117 -130 -218 -232 0
-117 -131 -192 -258 0
-117 -131 -194 -256 0
-117 -131 -201 -252 0
-117 -132 -192 -243 0
-117 -133 -181 -258 0
-117 -133 -194 -236 0
-117 -133 -196 -234 0
-117 -134 -185 -241 0
-117 -134 -190 -236 0
-117 -138 -185 -237 0
-117 -138 -188 -234 0
-117 -138 -190 -232 0
-117 -140 -170 -265 0
-117 -140 -174 -258 0
-117 -140 -183 -229 0
-117 -140 -185 -224 0
-117 -140 -187 -222 0
-117 -140 -194 -215 0
-117 -140 -196 -213 0
-117 -140 -201 -211 0
-117 -141 -192 -213 0
-117 -143 -188 -215 0
-117 -143 -192 -211 0
-117 -145 -188 -213 0
-117 -145 -190 -211 0
-117 -146 -174 -243 0
-117 -146 -177 -229 0
-117 -149 -177 -220 0
-117 -151 -179 -216 0
-117 -152 -179 -215 0
-117 -154 -177 -215 0
-117 -156 -172 -232 0
-117 -156 -177 -213 0
-117 -156 -179 -211 0
-118 -123 -222 -255 0
-118 -129 -216 -234 0
-118 -129 -218 -232 0
-118 -131 -194 -255 0
-118 -131 -195 -254 0
-118 -131 -200 -252 0
-118 -132 -180 -268 0
-118 -133 -180 -258 0
-118 -133 -194 -235 0
-118 -133 -195 -234 0
-118 -133 -200 -232 0
-118 -134 -185 -240 0
-118 -136 -180 -252 0
-118 -137 -177 -254 0
-118 -137 -185 -237 0
-118 -137 -190 -232 0
-118 -139 -173 -268 0
-118 -139 -190 -223 0
-118 -140 -170 -264 0
-118 -140 -183 -228 0
-118 -140 -185 -223 0
-118 -140 -186 -222 0
-118 -140 -194 -214 0
-118 -140 -195 -213 0
-118 -140 -200 -211 0
-118 -143 -191 -211 0
-118 -149 -191 -205 0
-118 -150 -188 -207 0
-118 -154 -180 -211 0
-119 -126 -209 -253 0
-119 -126 -212 -241 0
-119 -126 -215 -238 0
-119 -127 -216 -236 0
-119 -127 -220 -232 0
-119 -140 -170 -263 0
-119 -140 -174 -257 0
-119 -140 -183 -227 0
-119 -140 -184 -224 0
-119 -140 -187 -221 0
-119 -140 -193 -215 0
-119 -140 -196 -212 0
-119 -140 -199 -211 0
-119 -146 -177 -227 0
-119 -147 -171 -241 0
-120 -126 -206 -255 0
-120 -126 -214 -238 0
-120 -126 -217 -235 0
-120 -126 -219 -233 0
-120 -133 -180 -257 0
-120 -133 -198 -232 0
-120 -134 -184 -240 0
-120 -135 -180 -252 0
-120 -137 -177 -253 0
-120 -137 -184 -237 0
-120 -140 -170 -262 0
-120 -140 -183 -226 0
-120 -140 -184 -223 0
-120 -140 -186 -221 0
-120 -140 -193 -214 0
-120 -140 -195 -212 0
-120 -140 -198 -211 0
-120 -142 -191 -211 0
-120 -146 -177 -226 0
-120 -147 -171 -240 0
-120 -147 -173 -238 0
-120 -148 -191 -205 0
-120 -150 -188 -206 0
-120 -153 -180 -211 0
-121 -127 -216 -234 0
-121 -127 -218 -232 0
-121 -131 -189 -258 0
-121 -131 -193 -254 0
-121 -131 -194 -253 0
-121 -131 -197 -252 0
-121 -133 -193 -234 0
-121 -133 -194 -233 0
-121 -133 -197 -232 0
-121 -134 -178 -254 0
-121 -140 -170 -261 0
-121 -140 -183 -225 0
-121 -140 -184 -222 0
-121 -140 -185 -221 0
-121 -140 -193 -213 0
-121 -140 -194 -212 0
-121 -140 -197 -211 0
-121 -148 -179 -216 0
-121 -153 -170 -234 0
-121 -153 -172 -232 0
2 0
3 0
4 0
5 0
6 0
-7 0
-8 0
-9 0
-10 0
-11 0
-12 0
-13 0
-14 0
-15 0
-16 0
-17 0
-18 0
-19 0
-20 0
-21 0
