p cnf 286 287
-1 -2 -3 -12 -13 -22 0
-1 -2 -4 -12 -14 -23 0
-1 -3 -4 -13 -14 -31 0
7 8 9 57 58 61 0
7 8 10 57 59 62 0
7 8 11 57 60 63 0
7 9 10 58 59 64 0
7 9 11 58 60 65 0
7 10 11 59 60 66 0
8 9 10 61 62 64 0
8 9 11 61 63 65 0
8 10 11 62 63 66 0
9 10 11 64 65 66 0
-12 -17 -18 -26 -27 -57 0
-12 -17 -19 -26 -28 -58 0
-12 -17 -20 -26 -29 -59 0
-12 -17 -21 -26 -30 -60 0
-12 -18 -19 -27 -28 -61 0
-12 -18 -20 -27 -29 -62 0
-12 -18 -21 -27 -30 -63 0
-12 -19 -20 -28 -29 -64 0
-12 -19 -21 -28 -30 -65 0
-12 -20 -21 -29 -30 -66 0
-13 -17 -18 -34 -35 -57 0
-13 -17 -19 -34 -36 -58 0
-13 -17 -20 -34 -37 -59 0
-13 -17 -21 -34 -38 -60 0
-13 -18 -19 -35 -36 -61 0
-13 -18 -20 -35 -37 -62 0
-13 -18 -21 -35 -38 -63 0
-13 -19 -20 -36 -37 -64 0
-13 -19 -21 -36 -38 -65 0
-13 -20 -21 -37 -38 -66 0
-14 -17 -18 -41 -42 -57 0
-14 -17 -19 -41 -43 -58 0
-14 -17 -20 -41 -44 -59 0
-14 -17 -21 -41 -45 -60 0
-14 -18 -19 -42 -43 -61 0
-14 -18 -20 -42 -44 -62 0
-14 -18 -21 -42 -45 -63 0
-14 -19 -20 -43 -44 -64 0
-14 -19 -21 -43 -45 -65 0
-14 -20 -21 -44 -45 -66 0
-17 -18 -19 -57 -58 -61 0
-17 -18 -20 -57 -59 -62 0
-17 -18 -21 -57 -60 -63 0
-17 -19 -20 -58 -59 -64 0
-17 -19 -21 -58 -60 -65 0
-17 -20 -21 -59 -60 -66 0
-18 -19 -20 -61 -62 -64 0
-18 -19 -21 -61 -63 -65 0
-18 -20 -21 -62 -63 -66 0
-19 -20 -21 -64 -65 -66 0
22 23 26 31 34 41 0
22 23 27 31 35 42 0
22 23 28 31 36 43 0
22 23 29 31 37 44 0
22 23 30 31 38 45 0
22 26 27 34 35 57 0
22 26 29 34 37 59 0
22 26 30 34 38 60 0
22 27 28 35 36 61 0
22 27 29 35 37 62 0
22 27 30 35 38 63 0
22 28 29 36 37 64 0
22 28 30 36 38 65 0
23 26 27 41 42 57 0
23 26 28 41 43 58 0
23 26 29 41 44 59 0
23 26 30 41 45 60 0
23 27 28 42 43 61 0
23 27 29 42 44 62 0
23 27 30 42 45 63 0
23 28 29 43 44 64 0
23 29 30 44 45 66 0
31 34 35 41 42 57 0
31 34 36 41 43 58 0
31 34 37 41 44 59 0
31 34 38 41 45 60 0
31 35 36 42 43 61 0
31 35 37 42 44 62 0
31 35 38 42 45 63 0
31 36 37 43 44 64 0
31 36 38 43 45 65 0
31 37 38 44 45 66 0
101 -5 -6 -46 0
112 7 8 57 0
113 7 9 58 0
114 7 10 59 0
115 7 11 60 0
116 8 9 61 0
117 8 10 62 0
118 8 11 63 0
119 9 10 64 0
120 9 11 65 0
121 10 11 66 0
135 -13 -18 -35 0
146 15 16 46 0
157 -17 -18 -57 0
158 -17 -19 -58 0
159 -17 -20 -59 0
160 -17 -21 -60 0
162 -18 -20 -62 0
163 -18 -21 -63 0
166 -20 -21 -66 0
167 22 23 31 0
170 22 26 34 0
171 22 27 35 0
172 22 28 36 0
173 22 29 37 0
174 22 30 38 0
177 23 26 41 0
178 23 27 42 0
179 23 28 43 0
180 23 29 44 0
181 23 30 45 0
193 26 27 57 0
194 26 28 58 0
195 26 29 59 0
196 26 30 60 0
197 27 28 61 0
198 -27 -29 -62 0
198 27 29 62 0
199 -27 -30 -63 0
199 27 30 63 0
200 -28 -29 -64 0
200 28 29 64 0
201 28 30 65 0
202 29 30 66 0
205 31 34 41 0
206 31 35 42 0
207 31 36 43 0
208 31 37 44 0
209 31 38 45 0
221 34 35 57 0
222 34 36 58 0
223 34 37 59 0
224 34 38 60 0
225 35 36 61 0
226 -35 -37 -62 0
226 35 37 62 0
227 -35 -38 -63 0
227 35 38 63 0
228 36 37 64 0
229 36 38 65 0
230 37 38 66 0
242 41 42 57 0
243 41 43 58 0
244 41 44 59 0
245 -41 -45 -60 0
245 41 45 60 0
246 42 43 61 0
247 42 44 62 0
248 42 45 63 0
249 43 44 64 0
250 43 45 65 0
251 -44 -45 -66 0
251 44 45 66 0
280 -58 -59 -64 0
285 -62 -63 -66 0
285 62 63 66 0
286 -64 -65 -66 0
286 64 65 66 0
-101 -135 -177 -286 0
-101 -157 -167 -286 0
-101 -157 -172 -251 0
-101 -157 -174 -249 0
-101 -157 -179 -230 0
-101 -157 -202 -207 0
-101 -158 -167 -285 0
-101 -159 -171 -250 0
-101 -159 -172 -248 0
-101 -159 -174 -246 0
-101 -159 -178 -229 0
-101 -159 -179 -227 0
-101 -159 -199 -207 0
-101 -159 -201 -206 0
-101 -160 -172 -247 0
-101 -160 -178 -228 0
-101 -160 -179 -226 0
-101 -160 -180 -225 0
-101 -160 -198 -207 0
-101 -162 -172 -245 0
-101 -162 -174 -243 0
-101 -162 -177 -229 0
-101 -162 -179 -224 0
-101 -162 -196 -207 0
-101 -163 -167 -280 0
-101 -163 -172 -244 0
-101 -163 -179 -223 0
-101 -163 -195 -207 0
-101 -166 -172 -242 0
-101 -166 -179 -221 0
-101 -166 -193 -207 0
-112 -146 -167 -286 0
-112 -146 -172 -251 0
-112 -146 -174 -249 0
-112 -146 -179 -230 0
-112 -146 -180 -229 0
-112 -146 -181 -228 0
-112 -146 -200 -209 0
-112 -146 -202 -207 0
-113 -146 -167 -285 0
-113 -146 -173 -248 0
-113 -146 -174 -247 0
-113 -146 -178 -230 0
-113 -146 -180 -227 0
-113 -146 -181 -226 0
-113 -146 -198 -209 0
-113 -146 -202 -206 0
-114 -146 -172 -248 0
-114 -146 -174 -246 0
-114 -146 -179 -227 0
-114 -146 -181 -225 0
-114 -146 -197 -209 0
-114 -146 -199 -207 0
-114 -146 -201 -206 0
-115 -146 -172 -247 0
-115 -146 -173 -246 0
-115 -146 -179 -226 0
-115 -146 -197 -208 0
-115 -146 -198 -207 0
-115 -146 -200 -206 0
-116 -146 -170 -251 0
-116 -146 -173 -245 0
-116 -146 -174 -244 0
-116 -146 -177 -230 0
-116 -146 -180 -224 0
-116 -146 -181 -223 0
-116 -146 -195 -209 0
-116 -146 -202 -205 0
-117 -146 -170 -250 0
-117 -146 -172 -245 0
-117 -146 -177 -229 0
-117 -146 -179 -224 0
-117 -146 -181 -222 0
-117 -146 -196 -207 0
-117 -146 -201 -205 0
-118 -146 -172 -244 0
-118 -146 -177 -228 0
-118 -146 -179 -223 0
-118 -146 -180 -222 0
-118 -146 -195 -207 0
-119 -146 -170 -248 0
-119 -146 -171 -245 0
-119 -146 -174 -242 0
-119 -146 -177 -227 0
-119 -146 -178 -224 0
-119 -146 -181 -221 0
-119 -146 -193 -209 0
-119 -146 -196 -206 0
-119 -146 -199 -205 0
-120 -146 -170 -247 0
-120 -146 -171 -244 0
-120 -146 -173 -242 0
-120 -146 -177 -226 0
-120 -146 -193 -208 0
-120 -146 -198 -205 0
-121 -146 -170 -246 0
-121 -146 -172 -242 0
-121 -146 -177 -225 0
-121 -146 -178 -222 0
-121 -146 -179 -221 0
-121 -146 -193 -207 0
-121 -146 -194 -206 0
-121 -146 -197 -205 0
1 0
2 0
3 0
4 0
5 0
6 0
-7 0
-8 0
-9 0
-10 0
-11 0
12 0
13 0
14 0
-15 0
-16 0
17 0
18 0
19 0
20 0
21 0
