p cnf 286 1313
-1 -2 -3 -12 -13 -22 0
-3 -4 -5 -31 -32 -39 0
-3 -4 -6 -31 -33 -40 0
-3 -5 -6 -32 -33 -46 0
-4 -5 -6 -39 -40 -46 0
7 8 9 57 58 61 0
7 8 10 57 59 62 0
7 8 11 57 60 63 0
7 9 10 58 59 64 0
7 9 11 58 60 65 0
7 10 11 59 60 66 0
8 9 10 61 62 64 0
8 9 11 61 63 65 0
8 10 11 62 63 66 0
9 10 11 64 65 66 0
-12 -17 -18 -26 -27 -57 0
-12 -17 -19 -26 -28 -58 0
-12 -17 -20 -26 -29 -59 0
-12 -18 -19 -27 -28 -61 0
-12 -18 -20 -27 -29 -62 0
-12 -19 -20 -28 -29 -64 0
-13 -17 -18 -34 -35 -57 0
-13 -17 -19 -34 -36 -58 0
-13 -17 -20 -34 -37 -59 0
-13 -18 -19 -35 -36 -61 0
-13 -18 -20 -35 -37 -62 0
-13 -19 -20 -36 -37 -64 0
14 15 16 39 40 46 0
14 15 21 39 45 51 0
14 16 21 40 45 56 0
15 16 21 46 51 56 0
-17 -18 -19 -57 -58 -61 0
-17 -18 -20 -57 -59 -62 0
-17 -19 -20 -58 -59 -64 0
-18 -19 -20 -61 -62 -64 0
22 23 24 31 32 39 0
22 23 25 31 33 40 0
22 23 26 31 34 41 0
22 23 27 31 35 42 0
22 23 28 31 36 43 0
22 23 29 31 37 44 0
22 23 30 31 38 45 0
22 24 25 32 33 46 0
22 24 26 32 34 47 0
22 24 27 32 35 48 0
22 24 28 32 36 49 0
22 24 29 32 37 50 0
22 25 26 33 34 52 0
22 25 27 33 35 53 0
22 25 28 33 36 54 0
22 25 29 33 37 55 0
22 25 30 33 38 56 0
22 26 27 34 35 57 0
22 26 28 34 36 58 0
22 26 29 34 37 59 0
22 26 30 34 38 60 0
22 27 28 35 36 61 0
22 27 29 35 37 62 0
22 27 30 35 38 63 0
22 28 29 36 37 64 0
22 28 30 36 38 65 0
22 29 30 37 38 66 0
23 24 26 39 41 47 0
23 24 27 39 42 48 0
23 24 28 39 43 49 0
23 24 29 39 44 50 0
23 25 26 40 41 52 0
23 25 27 40 42 53 0
23 25 28 40 43 54 0
23 25 29 40 44 55 0
23 26 27 41 42 57 0
23 26 28 41 43 58 0
23 26 29 41 44 59 0
23 27 28 42 43 61 0
23 27 29 42 44 62 0
23 28 29 43 44 64 0
23 28 30 43 45 65 0
23 29 30 44 45 66 0
24 25 26 46 47 52 0
24 25 27 46 48 53 0
24 25 28 46 49 54 0
24 25 29 46 50 55 0
24 26 27 47 48 57 0
24 26 28 47 49 58 0
24 26 29 47 50 59 0
24 27 28 48 49 61 0
24 27 29 48 50 62 0
24 28 29 49 50 64 0
24 28 30 49 51 65 0
25 26 27 52 53 57 0
25 26 28 52 54 58 0
25 26 29 52 55 59 0
25 27 28 53 54 61 0
25 27 29 53 55 62 0
25 28 29 54 55 64 0
25 29 30 55 56 66 0
31 34 37 41 44 59 0
-31 -34 -38 -41 -45 -60 0
31 35 36 42 43 61 0
-31 -35 -38 -42 -45 -63 0
31 36 37 43 44 64 0
-31 -36 -38 -43 -45 -65 0
-31 -37 -38 -44 -45 -66 0
32 34 35 47 48 57 0
32 34 36 47 49 58 0
32 34 37 47 50 59 0
-32 -34 -38 -47 -51 -60 0
32 34 38 47 51 60 0
32 35 36 48 49 61 0
32 35 37 48 50 62 0
-32 -35 -38 -48 -51 -63 0
32 36 37 49 50 64 0
-32 -36 -38 -49 -51 -65 0
-32 -37 -38 -50 -51 -66 0
33 34 35 52 53 57 0
-33 -34 -38 -52 -56 -60 0
33 34 38 52 56 60 0
-33 -35 -38 -53 -56 -63 0
33 36 37 54 55 64 0
-33 -36 -38 -54 -56 -65 0
-33 -37 -38 -55 -56 -66 0
35 36 37 61 62 64 0
-39 -41 -42 -47 -48 -57 0
-39 -41 -43 -47 -49 -58 0
-39 -41 -45 -47 -51 -60 0
-39 -42 -43 -48 -49 -61 0
-39 -42 -45 -48 -51 -63 0
-39 -43 -44 -49 -50 -64 0
39 43 44 49 50 64 0
-39 -43 -45 -49 -51 -65 0
-40 -41 -42 -52 -53 -57 0
-40 -41 -44 -52 -55 -59 0
-40 -41 -45 -52 -56 -60 0
-40 -42 -44 -53 -55 -62 0
-40 -42 -45 -53 -56 -63 0
-40 -43 -44 -54 -55 -64 0
-40 -43 -45 -54 -56 -65 0
-40 -44 -45 -55 -56 -66 0
-41 -42 -45 -57 -60 -63 0
-41 -44 -45 -59 -60 -66 0
-42 -44 -45 -62 -63 -66 0
-46 -47 -48 -52 -53 -57 0
-46 -47 -49 -52 -54 -58 0
-46 -47 -51 -52 -56 -60 0
-46 -48 -50 -53 -55 -62 0
-46 -48 -51 -53 -56 -63 0
-46 -49 -50 -54 -55 -64 0
-46 -49 -51 -54 -56 -65 0
-46 -50 -51 -55 -56 -66 0
-47 -48 -51 -57 -60 -63 0
-47 -49 -51 -58 -60 -65 0
-47 -50 -51 -59 -60 -66 0
-48 -49 -51 -61 -63 -65 0
-48 -50 -51 -62 -63 -66 0
-52 -55 -56 -59 -60 -66 0
-53 -54 -56 -61 -63 -65 0
67 -1 -2 -12 0
68 -1 -3 -13 0
86 -3 -4 -31 0
87 -3 -5 -32 0
88 -3 -6 -33 0
94 -4 -5 -39 0
95 -4 -6 -40 0
101 -5 -6 -46 0
112 7 8 57 0
113 7 9 58 0
114 7 10 59 0
115 7 11 60 0
116 8 9 61 0
117 8 10 62 0
118 8 11 63 0
119 9 10 64 0
120 9 11 65 0
121 10 11 66 0
126 -12 -17 -26 0
127 -12 -18 -27 0
128 -12 -19 -28 0
129 -12 -20 -29 0
134 -13 -17 -34 0
135 -13 -18 -35 0
136 -13 -19 -36 0
137 -13 -20 -37 0
139 14 15 39 0
140 14 16 40 0
145 14 21 45 0
146 15 16 46 0
151 15 21 51 0
156 16 21 56 0
157 -17 -18 -57 0
158 -17 -19 -58 0
159 -17 -20 -59 0
161 -18 -19 -61 0
162 -18 -20 -62 0
164 -19 -20 -64 0
167 22 23 31 0
168 22 24 32 0
169 22 25 33 0
170 22 26 34 0
171 22 27 35 0
172 22 28 36 0
173 22 29 37 0
174 22 30 38 0
175 23 24 39 0
176 23 25 40 0
177 23 26 41 0
178 23 27 42 0
179 23 28 43 0
180 23 29 44 0
181 23 30 45 0
182 24 25 46 0
183 24 26 47 0
184 24 27 48 0
185 24 28 49 0
186 24 29 50 0
187 24 30 51 0
188 25 26 52 0
189 25 27 53 0
190 25 28 54 0
191 25 29 55 0
192 25 30 56 0
193 26 27 57 0
194 26 28 58 0
195 26 29 59 0
196 -26 -30 -60 0
196 26 30 60 0
197 27 28 61 0
198 27 29 62 0
199 -27 -30 -63 0
199 27 30 63 0
200 28 29 64 0
201 -28 -30 -65 0
201 28 30 65 0
202 -29 -30 -66 0
202 29 30 66 0
205 -31 -34 -41 0
205 31 34 41 0
206 -31 -35 -42 0
206 31 35 42 0
207 -31 -36 -43 0
207 31 36 43 0
208 -31 -37 -44 0
208 31 37 44 0
209 -31 -38 -45 0
209 31 38 45 0
210 -32 -33 -46 0
211 -32 -34 -47 0
211 32 34 47 0
212 -32 -35 -48 0
212 32 35 48 0
213 -32 -36 -49 0
213 32 36 49 0
214 -32 -37 -50 0
214 32 37 50 0
215 -32 -38 -51 0
215 32 38 51 0
216 -33 -34 -52 0
216 33 34 52 0
217 -33 -35 -53 0
217 33 35 53 0
218 -33 -36 -54 0
218 33 36 54 0
219 -33 -37 -55 0
219 33 37 55 0
220 -33 -38 -56 0
220 33 38 56 0
221 34 35 57 0
222 34 36 58 0
223 34 37 59 0
224 -34 -38 -60 0
224 34 38 60 0
225 35 36 61 0
226 35 37 62 0
227 -35 -38 -63 0
227 35 38 63 0
228 36 37 64 0
229 -36 -38 -65 0
229 36 38 65 0
230 -37 -38 -66 0
230 37 38 66 0
232 -39 -41 -47 0
232 39 41 47 0
233 -39 -42 -48 0
234 -39 -43 -49 0
234 39 43 49 0
235 -39 -44 -50 0
235 39 44 50 0
236 -39 -45 -51 0
237 -40 -41 -52 0
237 40 41 52 0
238 -40 -42 -53 0
238 40 42 53 0
239 -40 -43 -54 0
239 40 43 54 0
240 -40 -44 -55 0
240 40 44 55 0
241 -40 -45 -56 0
242 -41 -42 -57 0
242 41 42 57 0
243 -41 -43 -58 0
243 41 43 58 0
244 -41 -44 -59 0
244 41 44 59 0
245 -41 -45 -60 0
245 41 45 60 0
246 -42 -43 -61 0
246 42 43 61 0
247 -42 -44 -62 0
247 42 44 62 0
248 -42 -45 -63 0
248 42 45 63 0
249 -43 -44 -64 0
249 43 44 64 0
250 -43 -45 -65 0
250 43 45 65 0
251 -44 -45 -66 0
251 44 45 66 0
252 -46 -47 -52 0
253 -46 -48 -53 0
253 46 48 53 0
254 -46 -49 -54 0
254 46 49 54 0
255 -46 -50 -55 0
255 46 50 55 0
256 -46 -51 -56 0
257 -47 -48 -57 0
257 47 48 57 0
258 -47 -49 -58 0
258 47 49 58 0
259 -47 -50 -59 0
259 47 50 59 0
260 -47 -51 -60 0
260 47 51 60 0
261 -48 -49 -61 0
261 48 49 61 0
262 -48 -50 -62 0
262 48 50 62 0
263 -48 -51 -63 0
263 48 51 63 0
264 -49 -50 -64 0
264 49 50 64 0
265 -49 -51 -65 0
265 49 51 65 0
266 -50 -51 -66 0
266 50 51 66 0
267 -52 -53 -57 0
267 52 53 57 0
268 -52 -54 -58 0
268 52 54 58 0
269 -52 -55 -59 0
269 52 55 59 0
270 -52 -56 -60 0
270 52 56 60 0
271 -53 -54 -61 0
271 53 54 61 0
272 -53 -55 -62 0
272 53 55 62 0
273 -53 -56 -63 0
273 53 56 63 0
274 -54 -55 -64 0
274 54 55 64 0
275 -54 -56 -65 0
275 54 56 65 0
276 -55 -56 -66 0
276 55 56 66 0
279 -57 -60 -63 0
281 -58 -60 -65 0
282 -59 -60 -66 0
284 -61 -63 -65 0
285 -62 -63 -66 0
286 -64 -65 -66 0
286 64 65 66 0
-67 -205 -253 -286 0
-67 -205 -254 -285 0
-67 -206 -252 -286 0
-67 -206 -255 -281 0
-67 -207 -253 -282 0
-67 -207 -255 -279 0
-67 -208 -253 -281 0
-67 -208 -254 -279 0
-67 -210 -244 -284 0
-67 -211 -238 -286 0
-67 -212 -237 -286 0
-67 -212 -239 -282 0
-67 -212 -240 -281 0
-67 -213 -240 -279 0
-67 -214 -238 -281 0
-67 -214 -239 -279 0
-67 -216 -233 -286 0
-67 -216 -235 -284 0
-67 -217 -232 -286 0
-67 -217 -251 -258 0
-67 -218 -235 -279 0
-67 -218 -244 -263 0
-67 -219 -232 -284 0
-67 -219 -233 -281 0
-67 -219 -234 -279 0
-67 -221 -239 -266 0
-67 -221 -240 -265 0
-67 -222 -238 -266 0
-67 -222 -251 -253 0
-67 -224 -240 -261 0
-67 -225 -241 -259 0
-67 -226 -241 -258 0
-67 -227 -239 -259 0
-67 -227 -243 -255 0
-67 -228 -237 -263 0
-67 -228 -241 -257 0
-67 -229 -235 -267 0
-67 -229 -240 -257 0
-68 -175 -267 -286 0
-68 -175 -268 -285 0
-68 -175 -269 -284 0
-68 -175 -271 -282 0
-68 -175 -272 -281 0
-68 -175 -274 -279 0
-68 -176 -257 -286 0
-68 -176 -258 -285 0
-68 -176 -259 -284 0
-68 -176 -261 -282 0
-68 -176 -262 -281 0
-68 -176 -264 -279 0
-68 -177 -253 -286 0
-68 -177 -262 -275 0
-68 -179 -255 -279 0
-68 -180 -253 -281 0
-68 -180 -254 -279 0
-68 -182 -242 -286 0
-68 -182 -243 -285 0
-68 -182 -244 -284 0
-68 -182 -246 -282 0
-68 -182 -247 -281 0
-68 -182 -249 -279 0
-68 -183 -238 -286 0
-68 -184 -237 -286 0
-68 -184 -239 -282 0
-68 -184 -240 -281 0
-68 -185 -240 -279 0
-68 -188 -233 -286 0
-68 -188 -235 -284 0
-68 -189 -232 -286 0
-68 -190 -235 -279 0
-68 -190 -244 -263 0
-68 -191 -232 -284 0
-68 -191 -233 -281 0
-68 -191 -234 -279 0
-68 -196 -240 -261 0
-68 -197 -244 -256 0
-68 -198 -243 -256 0
-68 -199 -240 -258 0
-68 -201 -240 -257 0
-86 -126 -253 -286 0
-86 -126 -254 -285 0
-86 -126 -255 -284 0
-86 -127 -252 -286 0
-86 -127 -254 -282 0
-86 -127 -255 -281 0
-86 -128 -255 -279 0
-86 -128 -263 -269 0
-86 -129 -253 -281 0
-86 -129 -254 -279 0
-86 -129 -263 -268 0
-86 -156 -195 -261 0
-86 -157 -182 -286 0
-86 -158 -182 -285 0
-86 -159 -182 -284 0
-86 -159 -197 -256 0
-86 -161 -182 -282 0
-86 -162 -182 -281 0
-86 -162 -194 -256 0
-86 -164 -182 -279 0
-86 -164 -196 -253 0
-87 -126 -238 -286 0
-87 -126 -239 -285 0
-87 -126 -240 -284 0
-87 -127 -237 -286 0
-87 -127 -239 -282 0
-87 -127 -240 -281 0
-87 -127 -250 -269 0
-87 -128 -237 -285 0
-87 -128 -238 -282 0
-87 -128 -240 -279 0
-87 -128 -247 -270 0
-87 -129 -237 -284 0
-87 -129 -238 -281 0
-87 -129 -239 -279 0
-87 -129 -243 -273 0
-87 -157 -176 -286 0
-87 -157 -190 -251 0
-87 -157 -191 -250 0
-87 -157 -200 -241 0
-87 -157 -201 -240 0
-87 -158 -176 -285 0
-87 -158 -189 -251 0
-87 -158 -199 -240 0
-87 -159 -176 -284 0
-87 -159 -178 -275 0
-87 -159 -179 -273 0
-87 -159 -199 -239 0
-87 -161 -176 -282 0
-87 -161 -180 -270 0
-87 -161 -191 -245 0
-87 -161 -192 -244 0
-87 -161 -196 -240 0
-87 -162 -176 -281 0
-87 -162 -179 -270 0
-87 -162 -194 -241 0
-87 -162 -196 -239 0
-87 -162 -201 -237 0
-87 -164 -176 -279 0
-87 -164 -178 -270 0
-87 -164 -199 -237 0
-88 -126 -233 -286 0
-88 -126 -234 -285 0
-88 -126 -235 -284 0
-88 -126 -246 -266 0
-88 -126 -247 -265 0
-88 -126 -249 -263 0
-88 -127 -232 -286 0
-88 -127 -234 -282 0
-88 -127 -235 -281 0
-88 -127 -250 -259 0
-88 -127 -251 -258 0
-88 -128 -232 -285 0
-88 -128 -233 -282 0
-88 -128 -235 -279 0
-88 -128 -244 -263 0
-88 -128 -248 -259 0
-88 -128 -251 -257 0
-88 -129 -233 -281 0
-88 -129 -234 -279 0
-88 -129 -243 -263 0
-88 -145 -197 -259 0
-88 -157 -175 -286 0
-88 -157 -186 -250 0
-88 -158 -175 -285 0
-88 -158 -180 -263 0
-88 -158 -181 -262 0
-88 -158 -184 -251 0
-88 -158 -202 -233 0
-88 -159 -175 -284 0
-88 -159 -179 -263 0
-88 -159 -184 -250 0
-88 -159 -185 -248 0
-88 -159 -199 -234 0
-88 -161 -175 -282 0
-88 -161 -196 -235 0
-88 -162 -175 -281 0
-88 -162 -194 -236 0
-88 -164 -175 -279 0
-88 -164 -184 -245 0
-94 -126 -217 -286 0
-94 -126 -219 -284 0
-94 -126 -226 -275 0
-94 -126 -227 -274 0
-94 -126 -229 -272 0
-94 -126 -230 -271 0
-94 -127 -216 -286 0
-94 -127 -218 -282 0
-94 -127 -219 -281 0
-94 -127 -224 -274 0
-94 -127 -230 -268 0
-94 -128 -216 -285 0
-94 -128 -217 -282 0
-94 -128 -219 -279 0
-94 -128 -224 -272 0
-94 -128 -226 -270 0
-94 -128 -227 -269 0
-94 -128 -230 -267 0
-94 -129 -216 -284 0
-94 -129 -217 -281 0
-94 -129 -218 -279 0
-94 -129 -227 -268 0
-94 -129 -229 -267 0
-94 -134 -189 -286 0
-94 -134 -191 -284 0
-94 -134 -199 -274 0
-94 -135 -188 -286 0
-94 -135 -190 -282 0
-94 -135 -191 -281 0
-94 -135 -200 -270 0
-94 -136 -188 -285 0
-94 -136 -189 -282 0
-94 -137 -188 -284 0
-94 -137 -189 -281 0
-94 -137 -190 -279 0
-94 -137 -196 -271 0
-94 -137 -199 -268 0
-94 -137 -201 -267 0
-94 -156 -193 -228 0
-94 -156 -194 -226 0
-94 -156 -195 -225 0
-94 -156 -198 -222 0
-94 -156 -200 -221 0
-94 -157 -169 -286 0
-94 -157 -172 -276 0
-94 -157 -190 -230 0
-94 -157 -191 -229 0
-94 -158 -169 -285 0
-94 -158 -189 -230 0
-94 -158 -191 -227 0
-94 -158 -199 -219 0
-94 -158 -202 -217 0
-94 -159 -169 -284 0
-94 -159 -171 -275 0
-94 -159 -172 -273 0
-94 -159 -189 -229 0
-94 -159 -190 -227 0
-94 -159 -192 -225 0
-94 -159 -199 -218 0
-94 -159 -201 -217 0
-94 -161 -169 -282 0
-94 -161 -170 -276 0
-94 -161 -173 -270 0
-94 -161 -188 -230 0
-94 -161 -191 -224 0
-94 -161 -196 -219 0
-94 -161 -202 -216 0
-94 -162 -169 -281 0
-94 -162 -170 -275 0
-94 -162 -172 -270 0
-94 -162 -188 -229 0
-94 -162 -190 -224 0
-94 -162 -192 -222 0
-94 -162 -194 -220 0
-94 -162 -196 -218 0
-94 -164 -169 -279 0
-94 -164 -170 -273 0
-94 -164 -188 -227 0
-94 -164 -189 -224 0
-95 -126 -212 -286 0
-95 -126 -213 -285 0
-95 -126 -214 -284 0
-95 -126 -226 -265 0
-95 -126 -227 -264 0
-95 -126 -228 -263 0
-95 -126 -229 -262 0
-95 -126 -230 -261 0
-95 -127 -211 -286 0
-95 -127 -213 -282 0
-95 -127 -214 -281 0
-95 -127 -222 -266 0
-95 -127 -224 -264 0
-95 -127 -228 -260 0
-95 -127 -229 -259 0
-95 -127 -230 -258 0
-95 -128 -211 -285 0
-95 -128 -212 -282 0
-95 -128 -214 -279 0
-95 -128 -221 -266 0
-95 -128 -224 -262 0
-95 -128 -226 -260 0
-95 -128 -227 -259 0
-95 -129 -211 -284 0
-95 -129 -212 -281 0
-95 -129 -213 -279 0
-95 -129 -224 -261 0
-95 -129 -227 -258 0
-95 -129 -229 -257 0
-95 -134 -184 -286 0
-95 -134 -185 -285 0
-95 -134 -186 -284 0
-95 -134 -199 -264 0
-95 -134 -200 -263 0
-95 -134 -201 -262 0
-95 -134 -202 -261 0
-95 -135 -185 -282 0
-95 -135 -186 -281 0
-95 -135 -196 -264 0
-95 -135 -201 -259 0
-95 -135 -202 -258 0
-95 -136 -183 -285 0
-95 -136 -184 -282 0
-95 -136 -186 -279 0
-95 -136 -193 -266 0
-95 -136 -196 -262 0
-95 -136 -199 -259 0
-95 -136 -202 -257 0
-95 -137 -183 -284 0
-95 -137 -184 -281 0
-95 -137 -185 -279 0
-95 -137 -193 -265 0
-95 -137 -194 -263 0
-95 -137 -196 -261 0
-95 -137 -199 -258 0
-95 -151 -193 -228 0
-95 -151 -194 -226 0
-95 -151 -195 -225 0
-95 -151 -197 -223 0
-95 -151 -198 -222 0
-95 -151 -200 -221 0
-95 -157 -168 -286 0
-95 -157 -172 -266 0
-95 -157 -185 -230 0
-95 -157 -186 -229 0
-95 -157 -200 -215 0
-95 -157 -202 -213 0
-95 -158 -168 -285 0
-95 -158 -171 -266 0
-95 -158 -173 -263 0
-95 -158 -174 -262 0
-95 -158 -184 -230 0
-95 -158 -186 -227 0
-95 -158 -199 -214 0
-95 -158 -202 -212 0
-95 -159 -168 -284 0
-95 -159 -171 -265 0
-95 -159 -172 -263 0
-95 -159 -174 -261 0
-95 -159 -184 -229 0
-95 -159 -185 -227 0
-95 -159 -187 -225 0
-95 -159 -199 -213 0
-95 -159 -201 -212 0
-95 -161 -168 -282 0
-95 -161 -170 -266 0
-95 -161 -173 -260 0
-95 -161 -174 -259 0
-95 -161 -183 -230 0
-95 -161 -186 -224 0
-95 -161 -196 -214 0
-95 -161 -202 -211 0
-95 -162 -168 -281 0
-95 -162 -170 -265 0
-95 -162 -172 -260 0
-95 -162 -174 -258 0
-95 -162 -183 -229 0
-95 -162 -185 -224 0
-95 -162 -194 -215 0
-95 -162 -196 -213 0
-95 -162 -201 -211 0
-95 -164 -168 -279 0
-95 -164 -170 -263 0
-95 -164 -171 -260 0
-95 -164 -174 -257 0
-95 -164 -183 -227 0
-95 -164 -184 -224 0
-95 -164 -187 -221 0
-95 -164 -193 -215 0
-95 -164 -196 -212 0
-95 -164 -199 -211 0
-101 -126 -206 -286 0
-101 -126 -207 -285 0
-101 -126 -208 -284 0
-101 -126 -227 -249 0
-101 -126 -230 -246 0
-101 -127 -205 -286 0
-101 -127 -207 -282 0
-101 -127 -208 -281 0
-101 -127 -222 -251 0
-101 -127 -224 -249 0
-101 -127 -228 -245 0
-101 -127 -229 -244 0
-101 -127 -230 -243 0
-101 -128 -206 -282 0
-101 -128 -208 -279 0
-101 -128 -221 -251 0
-101 -128 -224 -247 0
-101 -128 -227 -244 0
-101 -129 -206 -281 0
-101 -129 -207 -279 0
-101 -129 -229 -242 0
-101 -134 -178 -286 0
-101 -134 -179 -285 0
-101 -134 -180 -284 0
-101 -135 -177 -286 0
-101 -135 -179 -282 0
-101 -135 -180 -281 0
-101 -135 -194 -251 0
-101 -135 -201 -244 0
-101 -135 -202 -243 0
-101 -136 -178 -282 0
-101 -136 -180 -279 0
-101 -136 -196 -247 0
-101 -136 -198 -245 0
-101 -136 -199 -244 0
-101 -137 -179 -279 0
-101 -145 -193 -228 0
-101 -145 -194 -226 0
-101 -145 -197 -223 0
-101 -145 -198 -222 0
-101 -145 -200 -221 0
-101 -157 -167 -286 0
-101 -157 -172 -251 0
-101 -157 -173 -250 0
-101 -157 -179 -230 0
-101 -157 -180 -229 0
-101 -157 -201 -208 0
-101 -157 -202 -207 0
-101 -158 -167 -285 0
-101 -158 -178 -230 0
-101 -158 -180 -227 0
-101 -159 -167 -284 0
-101 -159 -171 -250 0
-101 -159 -172 -248 0
-101 -159 -178 -229 0
-101 -159 -179 -227 0
-101 -159 -199 -207 0
-101 -159 -201 -206 0
-101 -161 -167 -282 0
-101 -161 -170 -251 0
-101 -161 -173 -245 0
-101 -161 -180 -224 0
-101 -162 -167 -281 0
-101 -162 -170 -250 0
-101 -162 -194 -209 0
-101 -162 -196 -207 0
-101 -164 -167 -279 0
-101 -164 -170 -248 0
-101 -164 -171 -245 0
-101 -164 -177 -227 0
-101 -164 -178 -224 0
-112 -128 -214 -241 0
-112 -128 -215 -240 0
-112 -136 -175 -276 0
-112 -136 -176 -266 0
-112 -136 -182 -251 0
-112 -136 -186 -241 0
-112 -137 -175 -275 0
-112 -137 -176 -265 0
-112 -137 -182 -250 0
-112 -137 -185 -241 0
-112 -137 -187 -239 0
-112 -139 -169 -286 0
-112 -139 -172 -276 0
-112 -139 -173 -275 0
-112 -139 -190 -230 0
-112 -139 -191 -229 0
-112 -139 -200 -220 0
-112 -140 -168 -286 0
-112 -140 -172 -266 0
-112 -140 -173 -265 0
-112 -140 -185 -230 0
-112 -140 -186 -229 0
-112 -140 -200 -215 0
-112 -140 -201 -214 0
-112 -140 -202 -213 0
-112 -145 -173 -254 0
-112 -145 -182 -228 0
-112 -145 -190 -214 0
-112 -145 -191 -213 0
-112 -146 -167 -286 0
-112 -146 -172 -251 0
-112 -146 -173 -250 0
-112 -146 -179 -230 0
-112 -146 -180 -229 0
-112 -146 -200 -209 0
-112 -151 -172 -240 0
-112 -151 -173 -239 0
-112 -151 -176 -228 0
-112 -151 -179 -219 0
-112 -151 -190 -208 0
-112 -156 -173 -234 0
-112 -156 -175 -228 0
-112 -164 -168 -241 0
-112 -164 -169 -236 0
-112 -164 -175 -220 0
-112 -164 -176 -215 0
-112 -164 -182 -209 0
-113 -127 -214 -241 0
-113 -127 -215 -240 0
-113 -127 -219 -236 0
-113 -127 -220 -235 0
-113 -129 -212 -241 0
-113 -135 -175 -276 0
-113 -135 -176 -266 0
-113 -135 -180 -256 0
-113 -135 -182 -251 0
-113 -135 -186 -241 0
-113 -135 -191 -236 0
-113 -137 -175 -273 0
-113 -137 -176 -263 0
-113 -137 -178 -256 0
-113 -137 -182 -248 0
-113 -137 -184 -241 0
-113 -139 -169 -285 0
-113 -139 -171 -276 0
-113 -139 -173 -273 0
-113 -139 -189 -230 0
-113 -139 -191 -227 0
-113 -139 -192 -226 0
-113 -139 -198 -220 0
-113 -139 -199 -219 0
-113 -140 -168 -285 0
-113 -140 -171 -266 0
-113 -140 -173 -263 0
-113 -140 -174 -262 0
-113 -140 -184 -230 0
-113 -140 -186 -227 0
-113 -145 -169 -262 0
-113 -145 -171 -255 0
-113 -145 -182 -226 0
-113 -145 -184 -219 0
-113 -146 -167 -285 0
-113 -146 -171 -251 0
-113 -146 -173 -248 0
-113 -146 -178 -230 0
-113 -146 -180 -227 0
-113 -151 -169 -247 0
-113 -151 -171 -240 0
-113 -151 -173 -238 0
-113 -151 -176 -226 0
-113 -151 -178 -219 0
-113 -156 -175 -226 0
-113 -162 -168 -241 0
-113 -162 -169 -236 0
-113 -162 -175 -220 0
-113 -162 -176 -215 0
-114 -127 -215 -239 0
-114 -127 -220 -234 0
-114 -135 -175 -275 0
-114 -135 -176 -265 0
-114 -135 -182 -250 0
-114 -135 -185 -241 0
-114 -136 -175 -273 0
-114 -136 -176 -263 0
-114 -136 -182 -248 0
-114 -139 -169 -284 0
-114 -139 -171 -275 0
-114 -139 -172 -273 0
-114 -139 -192 -225 0
-114 -140 -168 -284 0
-114 -140 -171 -265 0
-114 -140 -172 -263 0
-114 -140 -184 -229 0
-114 -140 -185 -227 0
-114 -140 -197 -215 0
-114 -145 -182 -225 0
-114 -146 -167 -284 0
-114 -146 -171 -250 0
-114 -146 -172 -248 0
-114 -146 -178 -229 0
-114 -146 -197 -209 0
-114 -151 -167 -271 0
-114 -151 -171 -239 0
-114 -151 -176 -225 0
-114 -156 -168 -246 0
-114 -156 -175 -225 0
-114 -161 -168 -241 0
-114 -161 -175 -220 0
-114 -161 -176 -215 0
-114 -161 -182 -209 0
-115 -128 -208 -253 0
-115 -128 -212 -240 0
-115 -129 -218 -233 0
-115 -135 -175 -274 0
-115 -135 -176 -264 0
-115 -135 -180 -254 0
-115 -135 -182 -249 0
-115 -136 -175 -272 0
-115 -136 -176 -262 0
-115 -136 -180 -253 0
-115 -136 -182 -247 0
-115 -137 -175 -271 0
-115 -137 -176 -261 0
-115 -137 -179 -253 0
-115 -137 -182 -246 0
-115 -139 -171 -274 0
-115 -139 -172 -272 0
-115 -139 -173 -271 0
-115 -139 -189 -228 0
-115 -139 -190 -226 0
-115 -139 -191 -225 0
-115 -139 -197 -219 0
-115 -139 -198 -218 0
-115 -139 -200 -217 0
-115 -140 -171 -264 0
-115 -140 -172 -262 0
-115 -140 -173 -261 0
-115 -140 -184 -228 0
-115 -140 -185 -226 0
-115 -140 -186 -225 0
-115 -140 -197 -214 0
-115 -140 -200 -212 0
-115 -146 -171 -249 0
-115 -146 -172 -247 0
-115 -146 -173 -246 0
-115 -146 -178 -228 0
-115 -146 -179 -226 0
-115 -146 -180 -225 0
-115 -146 -197 -208 0
-115 -146 -198 -207 0
-115 -146 -200 -206 0
-115 -161 -168 -240 0
-115 -161 -169 -235 0
-115 -161 -175 -219 0
-115 -161 -176 -214 0
-115 -161 -182 -208 0
-115 -162 -167 -254 0
-115 -162 -168 -239 0
-115 -162 -169 -234 0
-115 -162 -175 -218 0
-115 -162 -176 -213 0
-115 -162 -182 -207 0
-115 -164 -168 -238 0
-115 -164 -175 -217 0
-115 -164 -176 -212 0
-115 -164 -182 -206 0
-116 -126 -208 -256 0
-116 -126 -214 -241 0
-116 -134 -175 -276 0
-116 -134 -176 -266 0
-116 -134 -182 -251 0
-116 -137 -175 -270 0
-116 -137 -176 -260 0
-116 -137 -182 -245 0
-116 -139 -169 -282 0
-116 -139 -170 -276 0
-116 -139 -173 -270 0
-116 -139 -188 -230 0
-116 -140 -168 -282 0
-116 -140 -170 -266 0
-116 -140 -173 -260 0
-116 -140 -183 -230 0
-116 -140 -186 -224 0
-116 -140 -195 -215 0
-116 -140 -196 -214 0
-116 -140 -202 -211 0
-116 -145 -169 -259 0
-116 -145 -182 -223 0
-116 -146 -167 -282 0
-116 -146 -170 -251 0
-116 -146 -173 -245 0
-116 -146 -177 -230 0
-116 -146 -180 -224 0
-116 -146 -202 -205 0
-116 -151 -167 -269 0
-116 -151 -169 -244 0
-116 -151 -170 -240 0
-116 -151 -173 -237 0
-116 -151 -176 -223 0
-116 -151 -177 -219 0
-116 -156 -168 -244 0
-116 -156 -175 -223 0
-116 -159 -167 -256 0
-116 -159 -168 -241 0
-116 -159 -169 -236 0
-116 -159 -175 -220 0
-116 -159 -176 -215 0
-117 -126 -213 -241 0
-117 -126 -215 -239 0
-117 -126 -218 -236 0
-117 -128 -211 -241 0
-117 -128 -216 -236 0
-117 -134 -175 -275 0
-117 -134 -176 -265 0
-117 -134 -182 -250 0
-117 -134 -185 -241 0
-117 -136 -175 -270 0
-117 -136 -176 -260 0
-117 -136 -182 -245 0
-117 -136 -183 -241 0
-117 -136 -188 -236 0
-117 -139 -169 -281 0
-117 -139 -170 -275 0
-117 -139 -172 -270 0
-117 -139 -188 -229 0
-117 -139 -190 -224 0
-117 -139 -194 -220 0
-117 -140 -168 -281 0
-117 -140 -170 -265 0
-117 -140 -172 -260 0
-117 -140 -183 -229 0
-117 -140 -201 -211 0
-117 -145 -169 -258 0
-117 -145 -182 -222 0
-117 -146 -167 -281 0
-117 -146 -170 -250 0
-117 -146 -172 -245 0
-117 -146 -177 -229 0
-117 -146 -201 -205 0
-117 -151 -176 -222 0
-117 -156 -167 -258 0
-117 -156 -168 -243 0
-117 -156 -175 -222 0
-117 -158 -167 -256 0
-117 -158 -168 -241 0
-117 -158 -169 -236 0
-117 -158 -175 -220 0
-117 -158 -176 -215 0
-118 -126 -208 -254 0
-118 -126 -213 -240 0
-118 -128 -216 -235 0
-118 -128 -219 -232 0
-118 -129 -207 -252 0
-118 -129 -218 -232 0
-118 -134 -175 -274 0
-118 -134 -176 -264 0
-118 -134 -180 -254 0
-118 -134 -182 -249 0
-118 -134 -185 -240 0
-118 -136 -175 -269 0
-118 -136 -176 -259 0
-118 -136 -182 -244 0
-118 -136 -186 -237 0
-118 -137 -175 -268 0
-118 -137 -176 -258 0
-118 -137 -179 -252 0
-118 -137 -182 -243 0
-118 -139 -170 -274 0
-118 -139 -172 -269 0
-118 -139 -173 -268 0
-118 -139 -188 -228 0
-118 -139 -190 -223 0
-118 -139 -191 -222 0
-118 -139 -194 -219 0
-118 -139 -200 -216 0
-118 -140 -170 -264 0
-118 -140 -172 -259 0
-118 -140 -173 -258 0
-118 -140 -183 -228 0
-118 -140 -185 -223 0
-118 -140 -186 -222 0
-118 -140 -194 -214 0
-118 -140 -195 -213 0
-118 -140 -200 -211 0
-118 -146 -170 -249 0
-118 -146 -172 -244 0
-118 -146 -173 -243 0
-118 -146 -177 -228 0
-118 -146 -179 -223 0
-118 -146 -180 -222 0
-118 -146 -194 -208 0
-118 -146 -195 -207 0
-118 -146 -200 -205 0
-118 -158 -167 -255 0
-118 -158 -169 -235 0
-118 -158 -175 -219 0
-118 -158 -176 -214 0
-118 -158 -182 -208 0
-118 -159 -168 -239 0
-118 -159 -169 -234 0
-118 -159 -175 -218 0
-118 -159 -176 -213 0
-118 -159 -182 -207 0
-118 -164 -168 -237 0
-118 -164 -169 -232 0
-118 -164 -175 -216 0
-118 -164 -176 -211 0
-118 -164 -182 -205 0
-119 -126 -206 -256 0
-119 -126 -209 -253 0
-119 -126 -212 -241 0
-119 -127 -211 -241 0
-119 -134 -175 -273 0
-119 -134 -176 -263 0
-119 -134 -182 -248 0
-119 -135 -175 -270 0
-119 -135 -176 -260 0
-119 -135 -182 -245 0
-119 -135 -183 -241 0
-119 -139 -169 -279 0
-119 -139 -170 -273 0
-119 -139 -171 -270 0
-119 -139 -188 -227 0
-119 -140 -168 -279 0
-119 -140 -170 -263 0
-119 -140 -171 -260 0
-119 -140 -183 -227 0
-119 -140 -184 -224 0
-119 -140 -187 -221 0
-119 -140 -193 -215 0
-119 -140 -199 -211 0
-119 -145 -169 -257 0
-119 -145 -170 -253 0
-119 -145 -182 -221 0
-119 -146 -167 -279 0
-119 -146 -170 -248 0
-119 -146 -171 -245 0
-119 -146 -177 -227 0
-119 -146 -181 -221 0
-119 -146 -193 -209 0
-119 -151 -170 -238 0
-119 -151 -171 -237 0
-119 -151 -176 -221 0
-119 -156 -175 -221 0
-119 -157 -167 -256 0
-119 -157 -168 -241 0
-119 -157 -175 -220 0
-119 -157 -176 -215 0
-120 -126 -208 -253 0
-120 -126 -212 -240 0
-120 -127 -211 -240 0
-120 -127 -216 -235 0
-120 -134 -175 -272 0
-120 -134 -176 -262 0
-120 -134 -180 -253 0
-120 -134 -182 -247 0
-120 -135 -175 -269 0
-120 -135 -176 -259 0
-120 -135 -177 -255 0
-120 -135 -182 -244 0
-120 -135 -183 -240 0
-120 -137 -175 -267 0
-120 -137 -176 -257 0
-120 -137 -182 -242 0
-120 -139 -170 -272 0
-120 -139 -171 -269 0
-120 -139 -173 -267 0
-120 -139 -188 -226 0
-120 -139 -189 -223 0
-120 -139 -191 -221 0
-120 -139 -193 -219 0
-120 -139 -195 -217 0
-120 -139 -198 -216 0
-120 -140 -170 -262 0
-120 -140 -171 -259 0
-120 -140 -173 -257 0
-120 -140 -183 -226 0
-120 -140 -184 -223 0
-120 -140 -186 -221 0
-120 -140 -193 -214 0
-120 -140 -195 -212 0
-120 -140 -198 -211 0
-120 -146 -170 -247 0
-120 -146 -171 -244 0
-120 -146 -173 -242 0
-120 -146 -177 -226 0
-120 -146 -178 -223 0
-120 -146 -180 -221 0
-120 -146 -193 -208 0
-120 -146 -195 -206 0
-120 -146 -198 -205 0
-120 -157 -167 -255 0
-120 -157 -168 -240 0
-120 -157 -175 -219 0
-120 -157 -176 -214 0
-120 -157 -182 -208 0
-120 -159 -175 -217 0
-120 -159 -176 -212 0
-120 -159 -182 -206 0
-120 -162 -169 -232 0
-120 -162 -175 -216 0
-120 -162 -176 -211 0
-120 -162 -182 -205 0
-121 -126 -206 -254 0
-121 -127 -211 -239 0
-121 -127 -216 -234 0
-121 -134 -175 -271 0
-121 -134 -176 -261 0
-121 -134 -178 -254 0
-121 -134 -182 -246 0
-121 -135 -175 -268 0
-121 -135 -176 -258 0
-121 -135 -182 -243 0
-121 -135 -183 -239 0
-121 -136 -175 -267 0
-121 -136 -176 -257 0
-121 -136 -182 -242 0
-121 -139 -170 -271 0
-121 -139 -171 -268 0
-121 -139 -172 -267 0
-121 -139 -188 -225 0
-121 -139 -189 -222 0
-121 -139 -190 -221 0
-121 -139 -193 -218 0
-121 -139 -194 -217 0
-121 -139 -197 -216 0
-121 -140 -170 -261 0
-121 -140 -171 -258 0
-121 -140 -172 -257 0
-121 -140 -183 -225 0
-121 -140 -184 -222 0
-121 -140 -185 -221 0
-121 -140 -193 -213 0
-121 -140 -197 -211 0
-121 -146 -170 -246 0
-121 -146 -171 -243 0
-121 -146 -172 -242 0
-121 -146 -177 -225 0
-121 -146 -178 -222 0
-121 -146 -179 -221 0
-121 -146 -193 -207 0
-121 -146 -194 -206 0
-121 -146 -197 -205 0
-121 -157 -168 -239 0
-121 -157 -169 -234 0
-121 -157 -175 -218 0
-121 -157 -176 -213 0
-121 -157 -182 -207 0
-121 -158 -167 -253 0
-121 -158 -168 -238 0
-121 -158 -175 -217 0
-121 -158 -176 -212 0
-121 -158 -182 -206 0
-121 -161 -168 -237 0
-121 -161 -169 -232 0
-121 -161 -175 -216 0
-121 -161 -176 -211 0
-121 -161 -182 -205 0
1 0
2 0
3 0
4 0
5 0
6 0
-7 0
-8 0
-9 0
-10 0
-11 0
12 0
13 0
-14 0
-15 0
-16 0
17 0
18 0
19 0
20 0
-21 0
-23 0
-24 0
-25 0
