p cnf 286 1873
-1 -2 -3 -12 -13 -22 0
-2 -4 -5 -23 -24 -39 0
-3 -4 -6 -31 -33 -40 0
-3 -5 -6 -32 -33 -46 0
7 8 9 57 58 61 0
7 8 10 57 59 62 0
7 8 11 57 60 63 0
7 9 10 58 59 64 0
7 9 11 58 60 65 0
7 10 11 59 60 66 0
8 9 10 61 62 64 0
8 9 11 61 63 65 0
8 10 11 62 63 66 0
9 10 11 64 65 66 0
-12 -17 -18 -26 -27 -57 0
-12 -17 -19 -26 -28 -58 0
-12 -17 -20 -26 -29 -59 0
-12 -18 -19 -27 -28 -61 0
-12 -18 -20 -27 -29 -62 0
-12 -19 -20 -28 -29 -64 0
-13 -17 -18 -34 -35 -57 0
-13 -17 -19 -34 -36 -58 0
-13 -17 -20 -34 -37 -59 0
-13 -18 -19 -35 -36 -61 0
-13 -18 -20 -35 -37 -62 0
-13 -19 -20 -36 -37 -64 0
14 15 16 39 40 46 0
14 15 21 39 45 51 0
14 16 21 40 45 56 0
15 16 21 46 51 56 0
-17 -18 -19 -57 -58 -61 0
-17 -18 -20 -57 -59 -62 0
-17 -19 -20 -58 -59 -64 0
-18 -19 -20 -61 -62 -64 0
22 25 26 33 34 52 0
22 25 27 33 35 53 0
22 25 28 33 36 54 0
22 25 29 33 37 55 0
22 25 30 33 38 56 0
22 26 27 34 35 57 0
22 26 28 34 36 58 0
22 26 29 34 37 59 0
22 26 30 34 38 60 0
22 27 28 35 36 61 0
22 27 29 35 37 62 0
22 27 30 35 38 63 0
22 28 29 36 37 64 0
22 28 30 36 38 65 0
22 29 30 37 38 66 0
-23 -26 -30 -41 -45 -60 0
-23 -27 -30 -42 -45 -63 0
-23 -28 -30 -43 -45 -65 0
-23 -29 -30 -44 -45 -66 0
-24 -26 -30 -47 -51 -60 0
-24 -27 -30 -48 -51 -63 0
-24 -28 -30 -49 -51 -65 0
-24 -29 -30 -50 -51 -66 0
25 26 27 52 53 57 0
25 26 28 52 54 58 0
25 26 29 52 55 59 0
25 26 30 52 56 60 0
25 27 28 53 54 61 0
25 27 29 53 55 62 0
25 27 30 53 56 63 0
25 28 29 54 55 64 0
25 28 30 54 56 65 0
25 29 30 55 56 66 0
26 27 30 57 60 63 0
26 28 29 58 59 64 0
27 28 29 61 62 64 0
28 29 30 64 65 66 0
31 32 34 39 41 47 0
31 32 35 39 42 48 0
31 32 36 39 43 49 0
31 32 37 39 44 50 0
31 33 34 40 41 52 0
31 33 35 40 42 53 0
31 34 35 41 42 57 0
31 34 36 41 43 58 0
31 34 37 41 44 59 0
-31 -34 -38 -41 -45 -60 0
31 35 36 42 43 61 0
31 35 37 42 44 62 0
31 35 38 42 45 63 0
31 36 37 43 44 64 0
-31 -36 -38 -43 -45 -65 0
-31 -37 -38 -44 -45 -66 0
32 33 35 46 48 53 0
32 34 35 47 48 57 0
32 34 36 47 49 58 0
32 34 37 47 50 59 0
-32 -34 -38 -47 -51 -60 0
32 35 36 48 49 61 0
32 35 37 48 50 62 0
-32 -35 -38 -48 -51 -63 0
32 36 37 49 50 64 0
-32 -36 -38 -49 -51 -65 0
-32 -37 -38 -50 -51 -66 0
32 37 38 50 51 66 0
33 34 35 52 53 57 0
33 34 36 52 54 58 0
33 34 37 52 55 59 0
-33 -34 -38 -52 -56 -60 0
33 34 38 52 56 60 0
33 35 36 53 54 61 0
33 35 37 53 55 62 0
-33 -35 -38 -53 -56 -63 0
33 35 38 53 56 63 0
33 36 37 54 55 64 0
-33 -36 -38 -54 -56 -65 0
-33 -37 -38 -55 -56 -66 0
33 37 38 55 56 66 0
35 36 38 61 63 65 0
-35 -37 -38 -62 -63 -66 0
39 41 42 47 48 57 0
39 41 43 47 49 58 0
39 41 44 47 50 59 0
39 42 43 48 49 61 0
39 42 44 48 50 62 0
39 43 44 49 50 64 0
-40 -41 -42 -52 -53 -57 0
-40 -41 -43 -52 -54 -58 0
40 41 43 52 54 58 0
-40 -41 -44 -52 -55 -59 0
-40 -41 -45 -52 -56 -60 0
-40 -42 -43 -53 -54 -61 0
40 42 43 53 54 61 0
40 42 44 53 55 62 0
-40 -42 -45 -53 -56 -63 0
-40 -43 -44 -54 -55 -64 0
-40 -43 -45 -54 -56 -65 0
-40 -44 -45 -55 -56 -66 0
-41 -43 -45 -58 -60 -65 0
-41 -44 -45 -59 -60 -66 0
-42 -43 -45 -61 -63 -65 0
-42 -44 -45 -62 -63 -66 0
-43 -44 -45 -64 -65 -66 0
-46 -47 -48 -52 -53 -57 0
46 47 48 52 53 57 0
-46 -47 -49 -52 -54 -58 0
46 47 49 52 54 58 0
-46 -47 -50 -52 -55 -59 0
-46 -47 -51 -52 -56 -60 0
-46 -48 -49 -53 -54 -61 0
-46 -48 -50 -53 -55 -62 0
-46 -48 -51 -53 -56 -63 0
-46 -49 -50 -54 -55 -64 0
46 49 50 54 55 64 0
-46 -49 -51 -54 -56 -65 0
-46 -50 -51 -55 -56 -66 0
-47 -48 -51 -57 -60 -63 0
-47 -49 -51 -58 -60 -65 0
-48 -49 -51 -61 -63 -65 0
-48 -50 -51 -62 -63 -66 0
-52 -53 -56 -57 -60 -63 0
-52 -54 -56 -58 -60 -65 0
-52 -55 -56 -59 -60 -66 0
-53 -54 -56 -61 -63 -65 0
-53 -55 -56 -62 -63 -66 0
-54 -55 -56 -64 -65 -66 0
67 -1 -2 -12 0
68 -1 -3 -13 0
78 -2 -4 -23 0
79 -2 -5 -24 0
86 -3 -4 -31 0
87 -3 -5 -32 0
88 -3 -6 -33 0
95 -4 -6 -40 0
101 -5 -6 -46 0
112 7 8 57 0
113 7 9 58 0
114 7 10 59 0
115 7 11 60 0
116 8 9 61 0
117 8 10 62 0
118 8 11 63 0
119 9 10 64 0
120 9 11 65 0
121 10 11 66 0
126 -12 -17 -26 0
127 -12 -18 -27 0
128 -12 -19 -28 0
129 -12 -20 -29 0
134 -13 -17 -34 0
135 -13 -18 -35 0
136 -13 -19 -36 0
137 -13 -20 -37 0
139 14 15 39 0
140 14 16 40 0
145 14 21 45 0
146 15 16 46 0
151 15 21 51 0
156 16 21 56 0
157 -17 -18 -57 0
158 -17 -19 -58 0
159 -17 -20 -59 0
161 -18 -19 -61 0
162 -18 -20 -62 0
164 -19 -20 -64 0
169 22 25 33 0
170 22 26 34 0
171 22 27 35 0
172 22 28 36 0
173 22 29 37 0
174 22 30 38 0
177 -23 -26 -41 0
178 -23 -27 -42 0
179 -23 -28 -43 0
180 -23 -29 -44 0
181 -23 -30 -45 0
183 -24 -26 -47 0
184 -24 -27 -48 0
185 -24 -28 -49 0
186 -24 -29 -50 0
187 -24 -30 -51 0
188 25 26 52 0
189 25 27 53 0
190 25 28 54 0
191 25 29 55 0
192 25 30 56 0
193 26 27 57 0
194 26 28 58 0
195 26 29 59 0
196 -26 -30 -60 0
196 26 30 60 0
197 27 28 61 0
198 27 29 62 0
199 -27 -30 -63 0
199 27 30 63 0
200 28 29 64 0
201 -28 -30 -65 0
201 28 30 65 0
202 -29 -30 -66 0
202 29 30 66 0
203 31 32 39 0
204 -31 -33 -40 0
204 31 33 40 0
205 -31 -34 -41 0
205 31 34 41 0
206 -31 -35 -42 0
206 31 35 42 0
207 -31 -36 -43 0
207 31 36 43 0
208 -31 -37 -44 0
208 31 37 44 0
209 -31 -38 -45 0
209 31 38 45 0
210 32 33 46 0
211 -32 -34 -47 0
211 32 34 47 0
212 -32 -35 -48 0
212 32 35 48 0
213 -32 -36 -49 0
213 32 36 49 0
214 -32 -37 -50 0
214 32 37 50 0
215 -32 -38 -51 0
215 32 38 51 0
216 -33 -34 -52 0
216 33 34 52 0
217 -33 -35 -53 0
217 33 35 53 0
218 -33 -36 -54 0
218 33 36 54 0
219 -33 -37 -55 0
219 33 37 55 0
220 -33 -38 -56 0
220 33 38 56 0
221 34 35 57 0
222 34 36 58 0
223 34 37 59 0
224 -34 -38 -60 0
224 34 38 60 0
225 35 36 61 0
226 35 37 62 0
227 -35 -38 -63 0
227 35 38 63 0
228 -36 -37 -64 0
228 36 37 64 0
229 -36 -38 -65 0
229 36 38 65 0
230 -37 -38 -66 0
230 37 38 66 0
232 39 41 47 0
233 39 42 48 0
234 39 43 49 0
235 39 44 50 0
237 -40 -41 -52 0
237 40 41 52 0
238 -40 -42 -53 0
238 40 42 53 0
239 -40 -43 -54 0
239 40 43 54 0
240 -40 -44 -55 0
240 40 44 55 0
241 -40 -45 -56 0
242 -41 -42 -57 0
242 41 42 57 0
243 -41 -43 -58 0
243 41 43 58 0
244 -41 -44 -59 0
244 41 44 59 0
245 -41 -45 -60 0
245 41 45 60 0
246 -42 -43 -61 0
246 42 43 61 0
247 -42 -44 -62 0
247 42 44 62 0
248 -42 -45 -63 0
248 42 45 63 0
249 -43 -44 -64 0
249 43 44 64 0
250 -43 -45 -65 0
250 43 45 65 0
251 -44 -45 -66 0
251 44 45 66 0
252 -46 -47 -52 0
252 46 47 52 0
253 -46 -48 -53 0
253 46 48 53 0
254 -46 -49 -54 0
254 46 49 54 0
255 -46 -50 -55 0
255 46 50 55 0
256 -46 -51 -56 0
257 -47 -48 -57 0
257 47 48 57 0
258 -47 -49 -58 0
258 47 49 58 0
259 -47 -50 -59 0
259 47 50 59 0
260 -47 -51 -60 0
260 47 51 60 0
261 -48 -49 -61 0
261 48 49 61 0
262 -48 -50 -62 0
262 48 50 62 0
263 -48 -51 -63 0
263 48 51 63 0
264 -49 -50 -64 0
264 49 50 64 0
265 -49 -51 -65 0
265 49 51 65 0
266 -50 -51 -66 0
266 50 51 66 0
267 -52 -53 -57 0
267 52 53 57 0
268 -52 -54 -58 0
268 52 54 58 0
269 -52 -55 -59 0
269 52 55 59 0
270 -52 -56 -60 0
270 52 56 60 0
271 -53 -54 -61 0
271 53 54 61 0
272 -53 -55 -62 0
272 53 55 62 0
273 -53 -56 -63 0
273 53 56 63 0
274 -54 -55 -64 0
274 54 55 64 0
275 -54 -56 -65 0
275 54 56 65 0
276 -55 -56 -66 0
276 55 56 66 0
277 57 58 61 0
278 -57 -59 -62 0
278 57 59 62 0
279 -57 -60 -63 0
280 -58 -59 -64 0
280 58 59 64 0
281 -58 -60 -65 0
282 -59 -60 -66 0
284 -61 -63 -65 0
285 -62 -63 -66 0
286 -64 -65 -66 0
286 64 65 66 0
-67 -203 -267 -286 0
-67 -203 -268 -285 0
-67 -203 -269 -284 0
-67 -203 -271 -282 0
-67 -203 -272 -281 0
-67 -203 -274 -279 0
-67 -205 -265 -272 0
-67 -205 -266 -271 0
-67 -206 -255 -281 0
-67 -206 -266 -268 0
-67 -207 -253 -282 0
-67 -207 -266 -267 0
-67 -208 -253 -281 0
-67 -208 -254 -279 0
-67 -209 -259 -271 0
-67 -209 -261 -269 0
-67 -211 -238 -286 0
-67 -212 -237 -286 0
-67 -212 -243 -276 0
-67 -213 -251 -267 0
-67 -214 -237 -284 0
-67 -214 -238 -281 0
-67 -214 -239 -279 0
-67 -214 -245 -271 0
-67 -216 -233 -286 0
-67 -216 -234 -285 0
-67 -216 -235 -284 0
-67 -216 -249 -263 0
-67 -217 -232 -286 0
-67 -217 -234 -282 0
-67 -217 -235 -281 0
-67 -218 -232 -285 0
-67 -218 -233 -282 0
-67 -218 -235 -279 0
-67 -219 -232 -284 0
-67 -219 -233 -281 0
-67 -219 -234 -279 0
-67 -219 -243 -263 0
-67 -220 -244 -261 0
-67 -221 -234 -276 0
-67 -221 -235 -275 0
-67 -221 -240 -265 0
-67 -221 -249 -256 0
-67 -222 -235 -273 0
-67 -222 -238 -266 0
-67 -222 -240 -263 0
-67 -222 -251 -253 0
-67 -223 -233 -275 0
-67 -223 -234 -273 0
-67 -223 -241 -261 0
-67 -223 -250 -253 0
-67 -224 -233 -274 0
-67 -224 -234 -272 0
-67 -224 -235 -271 0
-67 -225 -232 -276 0
-67 -225 -235 -270 0
-67 -225 -237 -266 0
-67 -225 -241 -259 0
-67 -225 -244 -256 0
-67 -225 -245 -255 0
-67 -226 -232 -275 0
-67 -226 -234 -270 0
-67 -226 -237 -265 0
-67 -226 -241 -258 0
-67 -226 -243 -256 0
-67 -227 -232 -274 0
-67 -227 -234 -269 0
-67 -227 -235 -268 0
-67 -227 -237 -264 0
-67 -228 -232 -273 0
-67 -228 -233 -270 0
-67 -228 -241 -257 0
-67 -228 -242 -256 0
-67 -228 -248 -252 0
-67 -229 -232 -272 0
-67 -229 -233 -269 0
-67 -229 -235 -267 0
-67 -229 -237 -262 0
-67 -230 -232 -271 0
-67 -230 -233 -268 0
-67 -230 -234 -267 0
-67 -230 -237 -261 0
-68 -177 -261 -276 0
-68 -177 -264 -273 0
-68 -177 -265 -272 0
-68 -177 -266 -271 0
-68 -178 -252 -286 0
-68 -178 -254 -282 0
-68 -178 -255 -281 0
-68 -178 -258 -276 0
-68 -178 -259 -275 0
-68 -178 -266 -268 0
-68 -179 -252 -285 0
-68 -179 -253 -282 0
-68 -179 -259 -273 0
-68 -179 -266 -267 0
-68 -180 -252 -284 0
-68 -180 -253 -281 0
-68 -180 -254 -279 0
-68 -180 -258 -273 0
-68 -180 -261 -270 0
-68 -181 -259 -271 0
-68 -181 -261 -269 0
-68 -181 -264 -267 0
-68 -183 -239 -285 0
-68 -183 -250 -272 0
-68 -184 -237 -286 0
-68 -184 -243 -276 0
-68 -184 -249 -270 0
-68 -185 -242 -276 0
-68 -185 -244 -273 0
-68 -185 -245 -272 0
-68 -185 -251 -267 0
-68 -186 -237 -284 0
-68 -186 -238 -281 0
-68 -186 -239 -279 0
-68 -186 -243 -273 0
-68 -186 -245 -271 0
-68 -186 -246 -270 0
-68 -186 -250 -267 0
-68 -187 -242 -274 0
-68 -187 -243 -272 0
-68 -187 -244 -271 0
-68 -187 -246 -269 0
-68 -187 -247 -268 0
-68 -187 -249 -267 0
-68 -188 -233 -286 0
-68 -188 -234 -285 0
-68 -188 -235 -284 0
-68 -188 -246 -266 0
-68 -188 -251 -261 0
-68 -189 -232 -286 0
-68 -189 -234 -282 0
-68 -189 -235 -281 0
-68 -189 -250 -259 0
-68 -190 -232 -285 0
-68 -190 -233 -282 0
-68 -190 -235 -279 0
-68 -190 -244 -263 0
-68 -190 -245 -262 0
-68 -191 -232 -284 0
-68 -191 -233 -281 0
-68 -191 -234 -279 0
-68 -191 -246 -260 0
-68 -191 -250 -257 0
-68 -193 -234 -276 0
-68 -193 -235 -275 0
-68 -193 -241 -264 0
-68 -193 -249 -256 0
-68 -193 -250 -255 0
-68 -194 -233 -276 0
-68 -194 -235 -273 0
-68 -194 -238 -266 0
-68 -194 -240 -263 0
-68 -194 -241 -262 0
-68 -194 -247 -256 0
-68 -194 -248 -255 0
-68 -195 -233 -275 0
-68 -195 -234 -273 0
-68 -195 -238 -265 0
-68 -195 -241 -261 0
-68 -195 -246 -256 0
-68 -195 -248 -254 0
-68 -196 -233 -274 0
-68 -196 -234 -272 0
-68 -196 -235 -271 0
-68 -197 -232 -276 0
-68 -197 -235 -270 0
-68 -197 -237 -266 0
-68 -197 -241 -259 0
-68 -197 -244 -256 0
-68 -198 -232 -275 0
-68 -198 -234 -270 0
-68 -199 -232 -274 0
-68 -199 -234 -269 0
-68 -199 -235 -268 0
-68 -199 -237 -264 0
-68 -200 -232 -273 0
-68 -200 -233 -270 0
-68 -200 -237 -263 0
-68 -200 -238 -260 0
-68 -200 -242 -256 0
-68 -200 -245 -253 0
-68 -200 -248 -252 0
-68 -201 -232 -272 0
-68 -201 -233 -269 0
-68 -201 -235 -267 0
-68 -201 -237 -262 0
-68 -201 -247 -252 0
-68 -202 -232 -271 0
-68 -202 -233 -268 0
-68 -202 -237 -261 0
-78 -134 -253 -286 0
-78 -134 -254 -285 0
-78 -134 -255 -284 0
-78 -134 -261 -276 0
-78 -134 -262 -275 0
-78 -134 -263 -274 0
-78 -134 -264 -273 0
-78 -134 -265 -272 0
-78 -134 -266 -271 0
-78 -135 -252 -286 0
-78 -135 -254 -282 0
-78 -135 -255 -281 0
-78 -135 -258 -276 0
-78 -135 -259 -275 0
-78 -135 -260 -274 0
-78 -135 -264 -270 0
-78 -135 -265 -269 0
-78 -135 -266 -268 0
-78 -136 -252 -285 0
-78 -136 -253 -282 0
-78 -136 -255 -279 0
-78 -136 -257 -276 0
-78 -136 -259 -273 0
-78 -136 -260 -272 0
-78 -136 -262 -270 0
-78 -136 -263 -269 0
-78 -136 -266 -267 0
-78 -137 -252 -284 0
-78 -137 -253 -281 0
-78 -137 -254 -279 0
-78 -137 -257 -275 0
-78 -137 -258 -273 0
-78 -137 -260 -271 0
-78 -137 -261 -270 0
-78 -137 -263 -268 0
-78 -137 -265 -267 0
-78 -146 -221 -286 0
-78 -146 -222 -285 0
-78 -146 -223 -284 0
-78 -146 -225 -282 0
-78 -146 -226 -281 0
-78 -146 -228 -279 0
-78 -151 -221 -274 0
-78 -151 -222 -272 0
-78 -151 -223 -271 0
-78 -151 -225 -269 0
-78 -151 -226 -268 0
-78 -151 -228 -267 0
-78 -156 -221 -264 0
-78 -156 -222 -262 0
-78 -156 -223 -261 0
-78 -156 -225 -259 0
-78 -156 -226 -258 0
-78 -156 -228 -257 0
-78 -157 -210 -286 0
-78 -157 -213 -276 0
-78 -157 -214 -275 0
-78 -157 -215 -274 0
-78 -157 -218 -266 0
-78 -157 -219 -265 0
-78 -157 -220 -264 0
-78 -157 -228 -256 0
-78 -157 -229 -255 0
-78 -157 -230 -254 0
-78 -158 -210 -285 0
-78 -158 -212 -276 0
-78 -158 -214 -273 0
-78 -158 -215 -272 0
-78 -158 -217 -266 0
-78 -158 -219 -263 0
-78 -158 -220 -262 0
-78 -158 -226 -256 0
-78 -158 -227 -255 0
-78 -158 -230 -253 0
-78 -159 -210 -284 0
-78 -159 -212 -275 0
-78 -159 -213 -273 0
-78 -159 -215 -271 0
-78 -159 -217 -265 0
-78 -159 -218 -263 0
-78 -159 -220 -261 0
-78 -159 -225 -256 0
-78 -159 -227 -254 0
-78 -159 -229 -253 0
-78 -161 -210 -282 0
-78 -161 -211 -276 0
-78 -161 -214 -270 0
-78 -161 -215 -269 0
-78 -161 -216 -266 0
-78 -161 -219 -260 0
-78 -161 -220 -259 0
-78 -161 -223 -256 0
-78 -161 -224 -255 0
-78 -161 -230 -252 0
-78 -162 -210 -281 0
-78 -162 -211 -275 0
-78 -162 -213 -270 0
-78 -162 -215 -268 0
-78 -162 -216 -265 0
-78 -162 -218 -260 0
-78 -162 -220 -258 0
-78 -162 -222 -256 0
-78 -162 -224 -254 0
-78 -162 -229 -252 0
-78 -164 -210 -279 0
-78 -164 -211 -273 0
-78 -164 -212 -270 0
-78 -164 -215 -267 0
-78 -164 -216 -263 0
-78 -164 -217 -260 0
-78 -164 -220 -257 0
-78 -164 -221 -256 0
-78 -164 -224 -253 0
-78 -164 -227 -252 0
-79 -134 -238 -286 0
-79 -134 -239 -285 0
-79 -134 -240 -284 0
-79 -134 -246 -276 0
-79 -134 -247 -275 0
-79 -134 -248 -274 0
-79 -134 -249 -273 0
-79 -134 -250 -272 0
-79 -134 -251 -271 0
-79 -135 -237 -286 0
-79 -135 -239 -282 0
-79 -135 -240 -281 0
-79 -135 -243 -276 0
-79 -135 -244 -275 0
-79 -135 -245 -274 0
-79 -135 -249 -270 0
-79 -135 -250 -269 0
-79 -135 -251 -268 0
-79 -136 -237 -285 0
-79 -136 -238 -282 0
-79 -136 -240 -279 0
-79 -136 -242 -276 0
-79 -136 -244 -273 0
-79 -136 -245 -272 0
-79 -136 -247 -270 0
-79 -136 -248 -269 0
-79 -136 -251 -267 0
-79 -137 -237 -284 0
-79 -137 -238 -281 0
-79 -137 -239 -279 0
-79 -137 -242 -275 0
-79 -137 -243 -273 0
-79 -137 -245 -271 0
-79 -137 -246 -270 0
-79 -137 -248 -268 0
-79 -137 -250 -267 0
-79 -140 -221 -286 0
-79 -140 -222 -285 0
-79 -140 -223 -284 0
-79 -140 -225 -282 0
-79 -140 -226 -281 0
-79 -140 -228 -279 0
-79 -145 -221 -274 0
-79 -145 -222 -272 0
-79 -145 -223 -271 0
-79 -145 -225 -269 0
-79 -145 -226 -268 0
-79 -145 -228 -267 0
-79 -156 -221 -249 0
-79 -156 -222 -247 0
-79 -156 -223 -246 0
-79 -156 -225 -244 0
-79 -156 -226 -243 0
-79 -156 -228 -242 0
-79 -157 -204 -286 0
-79 -157 -207 -276 0
-79 -157 -208 -275 0
-79 -157 -209 -274 0
-79 -157 -218 -251 0
-79 -157 -219 -250 0
-79 -157 -220 -249 0
-79 -157 -228 -241 0
-79 -157 -229 -240 0
-79 -157 -230 -239 0
-79 -158 -204 -285 0
-79 -158 -206 -276 0
-79 -158 -208 -273 0
-79 -158 -209 -272 0
-79 -158 -217 -251 0
-79 -158 -219 -248 0
-79 -158 -220 -247 0
-79 -158 -226 -241 0
-79 -158 -227 -240 0
-79 -158 -230 -238 0
-79 -159 -204 -284 0
-79 -159 -206 -275 0
-79 -159 -207 -273 0
-79 -159 -209 -271 0
-79 -159 -217 -250 0
-79 -159 -218 -248 0
-79 -159 -220 -246 0
-79 -159 -225 -241 0
-79 -159 -227 -239 0
-79 -159 -229 -238 0
-79 -161 -204 -282 0
-79 -161 -205 -276 0
-79 -161 -208 -270 0
-79 -161 -209 -269 0
-79 -161 -216 -251 0
-79 -161 -219 -245 0
-79 -161 -220 -244 0
-79 -161 -223 -241 0
-79 -161 -224 -240 0
-79 -161 -230 -237 0
-79 -162 -204 -281 0
-79 -162 -205 -275 0
-79 -162 -207 -270 0
-79 -162 -209 -268 0
-79 -162 -216 -250 0
-79 -162 -218 -245 0
-79 -162 -220 -243 0
-79 -162 -222 -241 0
-79 -162 -224 -239 0
-79 -162 -229 -237 0
-79 -164 -204 -279 0
-79 -164 -205 -273 0
-79 -164 -206 -270 0
-79 -164 -209 -267 0
-79 -164 -216 -248 0
-79 -164 -217 -245 0
-79 -164 -220 -242 0
-79 -164 -224 -238 0
-79 -164 -227 -237 0
-86 -126 -253 -286 0
-86 -126 -264 -273 0
-86 -126 -265 -272 0
-86 -126 -266 -271 0
-86 -127 -252 -286 0
-86 -127 -254 -282 0
-86 -127 -258 -276 0
-86 -127 -259 -275 0
-86 -127 -264 -270 0
-86 -127 -266 -268 0
-86 -128 -252 -285 0
-86 -128 -253 -282 0
-86 -128 -255 -279 0
-86 -128 -259 -273 0
-86 -128 -262 -270 0
-86 -129 -252 -284 0
-86 -129 -253 -281 0
-86 -129 -254 -279 0
-86 -129 -257 -275 0
-86 -129 -258 -273 0
-86 -129 -261 -270 0
-86 -129 -263 -268 0
-86 -129 -265 -267 0
-86 -146 -194 -285 0
-86 -151 -193 -274 0
-86 -151 -194 -272 0
-86 -151 -195 -271 0
-86 -151 -200 -267 0
-86 -156 -193 -264 0
-86 -156 -194 -262 0
-86 -156 -195 -261 0
-86 -156 -198 -258 0
-86 -157 -185 -276 0
-86 -157 -186 -275 0
-86 -157 -187 -274 0
-86 -157 -202 -254 0
-86 -158 -184 -276 0
-86 -158 -186 -273 0
-86 -158 -187 -272 0
-86 -158 -189 -266 0
-86 -158 -198 -256 0
-86 -158 -202 -253 0
-86 -159 -184 -275 0
-86 -159 -185 -273 0
-86 -159 -187 -271 0
-86 -159 -189 -265 0
-86 -159 -190 -263 0
-86 -159 -192 -261 0
-86 -159 -199 -254 0
-86 -159 -201 -253 0
-86 -161 -183 -276 0
-86 -161 -186 -270 0
-86 -161 -187 -269 0
-86 -161 -188 -266 0
-86 -161 -192 -259 0
-86 -161 -195 -256 0
-86 -161 -202 -252 0
-86 -162 -185 -270 0
-86 -162 -187 -268 0
-86 -162 -188 -265 0
-86 -162 -192 -258 0
-86 -162 -194 -256 0
-86 -162 -196 -254 0
-86 -162 -201 -252 0
-86 -164 -183 -273 0
-86 -164 -184 -270 0
-86 -164 -187 -267 0
-86 -164 -199 -252 0
-87 -126 -238 -286 0
-87 -126 -251 -271 0
-87 -127 -237 -286 0
-87 -127 -243 -276 0
-87 -127 -249 -270 0
-87 -127 -251 -268 0
-87 -128 -237 -285 0
-87 -128 -238 -282 0
-87 -128 -240 -279 0
-87 -128 -244 -273 0
-87 -128 -247 -270 0
-87 -128 -251 -267 0
-87 -129 -237 -284 0
-87 -129 -238 -281 0
-87 -129 -239 -279 0
-87 -129 -243 -273 0
-87 -129 -246 -270 0
-87 -129 -250 -267 0
-87 -140 -193 -286 0
-87 -145 -194 -272 0
-87 -145 -195 -271 0
-87 -145 -198 -268 0
-87 -145 -200 -267 0
-87 -156 -193 -249 0
-87 -156 -194 -247 0
-87 -156 -195 -246 0
-87 -156 -200 -242 0
-87 -157 -179 -276 0
-87 -157 -180 -275 0
-87 -157 -181 -274 0
-87 -157 -190 -251 0
-87 -157 -191 -250 0
-87 -157 -200 -241 0
-87 -157 -201 -240 0
-87 -157 -202 -239 0
-87 -158 -178 -276 0
-87 -158 -180 -273 0
-87 -158 -181 -272 0
-87 -158 -189 -251 0
-87 -158 -191 -248 0
-87 -158 -198 -241 0
-87 -158 -199 -240 0
-87 -158 -202 -238 0
-87 -159 -178 -275 0
-87 -159 -179 -273 0
-87 -159 -181 -271 0
-87 -159 -189 -250 0
-87 -159 -190 -248 0
-87 -159 -199 -239 0
-87 -159 -201 -238 0
-87 -161 -177 -276 0
-87 -161 -180 -270 0
-87 -161 -181 -269 0
-87 -161 -188 -251 0
-87 -161 -191 -245 0
-87 -161 -195 -241 0
-87 -161 -196 -240 0
-87 -161 -202 -237 0
-87 -162 -179 -270 0
-87 -162 -181 -268 0
-87 -162 -188 -250 0
-87 -162 -192 -243 0
-87 -162 -194 -241 0
-87 -162 -196 -239 0
-87 -162 -201 -237 0
-87 -164 -177 -273 0
-87 -164 -178 -270 0
-87 -164 -181 -267 0
-87 -164 -188 -248 0
-87 -164 -196 -238 0
-87 -164 -199 -237 0
-88 -126 -233 -286 0
-88 -126 -234 -285 0
-88 -126 -235 -284 0
-88 -126 -249 -263 0
-88 -127 -232 -286 0
-88 -127 -234 -282 0
-88 -127 -235 -281 0
-88 -127 -244 -265 0
-88 -127 -250 -259 0
-88 -127 -251 -258 0
-88 -128 -232 -285 0
-88 -128 -233 -282 0
-88 -128 -235 -279 0
-88 -128 -251 -257 0
-88 -129 -232 -284 0
-88 -129 -233 -281 0
-88 -129 -234 -279 0
-88 -129 -245 -261 0
-88 -129 -250 -257 0
-88 -139 -193 -286 0
-88 -139 -194 -285 0
-88 -139 -195 -284 0
-88 -139 -197 -282 0
-88 -139 -198 -281 0
-88 -139 -200 -279 0
-88 -139 -201 -278 0
-88 -145 -193 -264 0
-88 -145 -195 -261 0
-88 -145 -200 -257 0
-88 -151 -193 -249 0
-88 -151 -194 -247 0
-88 -157 -179 -266 0
-88 -157 -180 -265 0
-88 -157 -181 -264 0
-88 -157 -185 -251 0
-88 -157 -186 -250 0
-88 -157 -187 -249 0
-88 -157 -201 -235 0
-88 -157 -202 -234 0
-88 -158 -178 -266 0
-88 -158 -180 -263 0
-88 -158 -181 -262 0
-88 -158 -184 -251 0
-88 -158 -186 -248 0
-88 -158 -187 -247 0
-88 -158 -199 -235 0
-88 -158 -202 -233 0
-88 -159 -178 -265 0
-88 -159 -179 -263 0
-88 -159 -181 -261 0
-88 -159 -184 -250 0
-88 -159 -187 -246 0
-88 -159 -199 -234 0
-88 -159 -201 -233 0
-88 -161 -177 -266 0
-88 -161 -181 -259 0
-88 -161 -183 -251 0
-88 -161 -186 -245 0
-88 -161 -187 -244 0
-88 -161 -196 -235 0
-88 -161 -202 -232 0
-88 -162 -177 -265 0
-88 -162 -179 -260 0
-88 -162 -181 -258 0
-88 -162 -183 -250 0
-88 -162 -187 -243 0
-88 -162 -196 -234 0
-88 -162 -201 -232 0
-88 -164 -177 -263 0
-88 -164 -178 -260 0
-88 -164 -181 -257 0
-88 -164 -187 -242 0
-88 -164 -196 -233 0
-88 -164 -199 -232 0
-95 -126 -212 -286 0
-95 -126 -213 -285 0
-95 -126 -214 -284 0
-95 -126 -225 -266 0
-95 -126 -226 -265 0
-95 -126 -227 -264 0
-95 -126 -228 -263 0
-95 -126 -229 -262 0
-95 -126 -230 -261 0
-95 -127 -211 -286 0
-95 -127 -213 -282 0
-95 -127 -214 -281 0
-95 -127 -222 -266 0
-95 -127 -228 -260 0
-95 -127 -229 -259 0
-95 -127 -230 -258 0
-95 -128 -211 -285 0
-95 -128 -212 -282 0
-95 -128 -214 -279 0
-95 -128 -224 -262 0
-95 -128 -226 -260 0
-95 -128 -227 -259 0
-95 -128 -230 -257 0
-95 -129 -211 -284 0
-95 -129 -212 -281 0
-95 -129 -213 -279 0
-95 -129 -221 -265 0
-95 -129 -222 -263 0
-95 -129 -224 -261 0
-95 -129 -225 -260 0
-95 -129 -227 -258 0
-95 -129 -229 -257 0
-95 -134 -184 -286 0
-95 -134 -185 -285 0
-95 -134 -186 -284 0
-95 -134 -197 -266 0
-95 -134 -198 -265 0
-95 -134 -199 -264 0
-95 -134 -200 -263 0
-95 -134 -201 -262 0
-95 -134 -202 -261 0
-95 -135 -183 -286 0
-95 -135 -185 -282 0
-95 -135 -186 -281 0
-95 -135 -194 -266 0
-95 -135 -195 -265 0
-95 -135 -196 -264 0
-95 -135 -201 -259 0
-95 -135 -202 -258 0
-95 -136 -183 -285 0
-95 -136 -184 -282 0
-95 -136 -186 -279 0
-95 -136 -187 -278 0
-95 -136 -193 -266 0
-95 -136 -195 -263 0
-95 -136 -196 -262 0
-95 -136 -198 -260 0
-95 -136 -199 -259 0
-95 -136 -202 -257 0
-95 -137 -183 -284 0
-95 -137 -184 -281 0
-95 -137 -185 -279 0
-95 -137 -193 -265 0
-95 -137 -194 -263 0
-95 -137 -196 -261 0
-95 -137 -199 -258 0
-95 -137 -201 -257 0
-95 -151 -171 -280 0
-95 -151 -193 -228 0
-95 -151 -194 -226 0
-95 -151 -195 -225 0
-95 -151 -197 -223 0
-95 -151 -198 -222 0
-95 -151 -200 -221 0
-95 -157 -172 -266 0
-95 -157 -173 -265 0
-95 -157 -185 -230 0
-95 -157 -186 -229 0
-95 -157 -187 -228 0
-95 -157 -200 -215 0
-95 -157 -201 -214 0
-95 -157 -202 -213 0
-95 -158 -171 -266 0
-95 -158 -173 -263 0
-95 -158 -174 -262 0
-95 -158 -184 -230 0
-95 -158 -186 -227 0
-95 -158 -187 -226 0
-95 -158 -198 -215 0
-95 -158 -199 -214 0
-95 -158 -202 -212 0
-95 -159 -171 -265 0
-95 -159 -172 -263 0
-95 -159 -174 -261 0
-95 -159 -184 -229 0
-95 -159 -185 -227 0
-95 -159 -187 -225 0
-95 -159 -197 -215 0
-95 -159 -199 -213 0
-95 -159 -201 -212 0
-95 -161 -170 -266 0
-95 -161 -173 -260 0
-95 -161 -183 -230 0
-95 -161 -186 -224 0
-95 -161 -187 -223 0
-95 -161 -195 -215 0
-95 -161 -196 -214 0
-95 -161 -202 -211 0
-95 -162 -170 -265 0
-95 -162 -172 -260 0
-95 -162 -183 -229 0
-95 -162 -185 -224 0
-95 -162 -187 -222 0
-95 -162 -194 -215 0
-95 -162 -196 -213 0
-95 -162 -201 -211 0
-95 -164 -170 -263 0
-95 -164 -171 -260 0
-95 -164 -174 -257 0
-95 -164 -183 -227 0
-95 -164 -184 -224 0
-95 -164 -187 -221 0
-95 -164 -193 -215 0
-95 -164 -196 -212 0
-95 -164 -199 -211 0
-101 -126 -226 -250 0
-101 -126 -230 -246 0
-101 -127 -205 -286 0
-101 -127 -208 -281 0
-101 -127 -222 -251 0
-101 -127 -223 -250 0
-101 -127 -228 -245 0
-101 -127 -229 -244 0
-101 -127 -230 -243 0
-101 -128 -205 -285 0
-101 -128 -206 -282 0
-101 -128 -208 -279 0
-101 -128 -221 -251 0
-101 -128 -223 -248 0
-101 -128 -226 -245 0
-101 -128 -227 -244 0
-101 -129 -205 -284 0
-101 -129 -206 -281 0
-101 -129 -207 -279 0
-101 -129 -221 -250 0
-101 -129 -222 -248 0
-101 -129 -224 -246 0
-101 -129 -225 -245 0
-101 -129 -227 -243 0
-101 -129 -229 -242 0
-101 -134 -178 -286 0
-101 -134 -179 -285 0
-101 -134 -180 -284 0
-101 -134 -197 -251 0
-101 -134 -198 -250 0
-101 -134 -199 -249 0
-101 -134 -200 -248 0
-101 -134 -202 -246 0
-101 -135 -177 -286 0
-101 -135 -179 -282 0
-101 -135 -180 -281 0
-101 -135 -194 -251 0
-101 -135 -195 -250 0
-101 -135 -196 -249 0
-101 -135 -201 -244 0
-101 -135 -202 -243 0
-101 -136 -177 -285 0
-101 -136 -178 -282 0
-101 -136 -180 -279 0
-101 -136 -193 -251 0
-101 -136 -195 -248 0
-101 -136 -199 -244 0
-101 -136 -202 -242 0
-101 -137 -177 -284 0
-101 -137 -178 -281 0
-101 -137 -179 -279 0
-101 -137 -193 -250 0
-101 -137 -194 -248 0
-101 -137 -196 -246 0
-101 -137 -199 -243 0
-101 -137 -201 -242 0
-101 -145 -193 -228 0
-101 -145 -194 -226 0
-101 -145 -195 -225 0
-101 -145 -197 -223 0
-101 -145 -198 -222 0
-101 -145 -200 -221 0
-101 -157 -172 -251 0
-101 -157 -173 -250 0
-101 -157 -174 -249 0
-101 -157 -179 -230 0
-101 -157 -180 -229 0
-101 -157 -181 -228 0
-101 -157 -200 -209 0
-101 -157 -201 -208 0
-101 -157 -202 -207 0
-101 -158 -171 -251 0
-101 -158 -173 -248 0
-101 -158 -174 -247 0
-101 -158 -178 -230 0
-101 -158 -180 -227 0
-101 -158 -181 -226 0
-101 -158 -198 -209 0
-101 -158 -199 -208 0
-101 -158 -202 -206 0
-101 -159 -171 -250 0
-101 -159 -172 -248 0
-101 -159 -174 -246 0
-101 -159 -178 -229 0
-101 -159 -179 -227 0
-101 -159 -181 -225 0
-101 -159 -197 -209 0
-101 -159 -199 -207 0
-101 -159 -201 -206 0
-101 -161 -170 -251 0
-101 -161 -173 -245 0
-101 -161 -177 -230 0
-101 -161 -180 -224 0
-101 -161 -181 -223 0
-101 -161 -195 -209 0
-101 -161 -196 -208 0
-101 -161 -202 -205 0
-101 -162 -170 -250 0
-101 -162 -172 -245 0
-101 -162 -174 -243 0
-101 -162 -177 -229 0
-101 -162 -179 -224 0
-101 -162 -181 -222 0
-101 -162 -194 -209 0
-101 -162 -196 -207 0
-101 -162 -201 -205 0
-101 -164 -170 -248 0
-101 -164 -171 -245 0
-101 -164 -174 -242 0
-101 -164 -177 -227 0
-101 -164 -178 -224 0
-101 -164 -181 -221 0
-101 -164 -193 -209 0
-101 -164 -196 -206 0
-101 -164 -199 -205 0
-112 -128 -203 -276 0
-112 -128 -208 -256 0
-112 -128 -209 -255 0
-112 -128 -215 -240 0
-112 -128 -220 -235 0
-112 -129 -203 -275 0
-112 -129 -207 -256 0
-112 -129 -209 -254 0
-112 -129 -215 -239 0
-112 -129 -220 -234 0
-112 -136 -180 -256 0
-112 -136 -181 -255 0
-112 -136 -186 -241 0
-112 -136 -187 -240 0
-112 -136 -192 -235 0
-112 -137 -179 -256 0
-112 -137 -181 -254 0
-112 -137 -185 -241 0
-112 -137 -187 -239 0
-112 -137 -192 -234 0
-112 -139 -169 -286 0
-112 -139 -172 -276 0
-112 -139 -173 -275 0
-112 -139 -174 -274 0
-112 -139 -190 -230 0
-112 -139 -191 -229 0
-112 -139 -192 -228 0
-112 -139 -200 -220 0
-112 -139 -201 -219 0
-112 -139 -202 -218 0
-112 -140 -172 -266 0
-112 -140 -173 -265 0
-112 -140 -185 -230 0
-112 -140 -186 -229 0
-112 -140 -187 -228 0
-112 -140 -200 -215 0
-112 -140 -201 -214 0
-112 -140 -202 -213 0
-112 -145 -169 -264 0
-112 -145 -172 -255 0
-112 -145 -173 -254 0
-112 -145 -186 -218 0
-112 -145 -191 -213 0
-112 -145 -200 -210 0
-112 -146 -172 -251 0
-112 -146 -173 -250 0
-112 -146 -179 -230 0
-112 -146 -180 -229 0
-112 -146 -181 -228 0
-112 -146 -200 -209 0
-112 -146 -201 -208 0
-112 -151 -169 -249 0
-112 -151 -172 -240 0
-112 -151 -173 -239 0
-112 -151 -180 -218 0
-112 -151 -191 -207 0
-112 -151 -200 -204 0
-112 -156 -172 -235 0
-112 -156 -173 -234 0
-112 -156 -186 -207 0
-112 -156 -200 -203 0
-112 -164 -192 -203 0
-113 -127 -203 -276 0
-113 -127 -208 -256 0
-113 -127 -209 -255 0
-113 -127 -214 -241 0
-113 -127 -215 -240 0
-113 -129 -203 -273 0
-113 -129 -206 -256 0
-113 -129 -209 -253 0
-113 -129 -215 -238 0
-113 -129 -220 -233 0
-113 -135 -180 -256 0
-113 -135 -181 -255 0
-113 -135 -186 -241 0
-113 -135 -192 -235 0
-113 -137 -178 -256 0
-113 -137 -181 -253 0
-113 -137 -184 -241 0
-113 -137 -187 -238 0
-113 -137 -192 -233 0
-113 -139 -169 -285 0
-113 -139 -171 -276 0
-113 -139 -173 -273 0
-113 -139 -174 -272 0
-113 -139 -189 -230 0
-113 -139 -191 -227 0
-113 -139 -192 -226 0
-113 -139 -198 -220 0
-113 -139 -199 -219 0
-113 -139 -202 -217 0
-113 -140 -171 -266 0
-113 -140 -173 -263 0
-113 -140 -174 -262 0
-113 -140 -184 -230 0
-113 -140 -186 -227 0
-113 -140 -187 -226 0
-113 -140 -198 -215 0
-113 -140 -199 -214 0
-113 -140 -202 -212 0
-113 -145 -169 -262 0
-113 -145 -171 -255 0
-113 -145 -173 -253 0
-113 -145 -186 -217 0
-113 -145 -189 -214 0
-113 -146 -171 -251 0
-113 -146 -173 -248 0
-113 -146 -174 -247 0
-113 -146 -178 -230 0
-113 -146 -180 -227 0
-113 -146 -181 -226 0
-113 -146 -198 -209 0
-113 -146 -199 -208 0
-113 -146 -202 -206 0
-113 -151 -169 -247 0
-113 -151 -171 -240 0
-113 -151 -173 -238 0
-113 -151 -189 -208 0
-113 -151 -191 -206 0
-113 -156 -171 -235 0
-113 -156 -173 -233 0
-113 -156 -180 -212 0
-113 -156 -186 -206 0
-113 -156 -198 -203 0
-113 -162 -192 -203 0
-114 -127 -203 -275 0
-114 -127 -204 -265 0
-114 -127 -207 -256 0
-114 -127 -209 -254 0
-114 -127 -213 -241 0
-114 -127 -215 -239 0
-114 -128 -203 -273 0
-114 -128 -206 -256 0
-114 -128 -212 -241 0
-114 -135 -179 -256 0
-114 -135 -181 -254 0
-114 -135 -185 -241 0
-114 -135 -187 -239 0
-114 -135 -192 -234 0
-114 -136 -178 -256 0
-114 -136 -181 -253 0
-114 -136 -184 -241 0
-114 -136 -187 -238 0
-114 -136 -192 -233 0
-114 -139 -169 -284 0
-114 -139 -171 -275 0
-114 -139 -172 -273 0
-114 -139 -174 -271 0
-114 -139 -189 -229 0
-114 -139 -190 -227 0
-114 -139 -192 -225 0
-114 -139 -197 -220 0
-114 -139 -199 -218 0
-114 -139 -201 -217 0
-114 -140 -171 -265 0
-114 -140 -172 -263 0
-114 -140 -174 -261 0
-114 -140 -184 -229 0
-114 -140 -185 -227 0
-114 -140 -187 -225 0
-114 -140 -197 -215 0
-114 -140 -201 -212 0
-114 -145 -169 -261 0
-114 -145 -171 -254 0
-114 -145 -172 -253 0
-114 -145 -189 -213 0
-114 -145 -190 -212 0
-114 -145 -197 -210 0
-114 -146 -171 -250 0
-114 -146 -172 -248 0
-114 -146 -174 -246 0
-114 -146 -178 -229 0
-114 -146 -179 -227 0
-114 -146 -181 -225 0
-114 -146 -197 -209 0
-114 -151 -169 -246 0
-114 -151 -171 -239 0
-114 -151 -172 -238 0
-114 -151 -189 -207 0
-114 -151 -190 -206 0
-114 -151 -197 -204 0
-114 -156 -171 -234 0
-114 -156 -172 -233 0
-114 -156 -178 -213 0
-114 -156 -184 -207 0
-114 -156 -197 -203 0
-114 -161 -192 -203 0
-115 -127 -203 -274 0
-115 -127 -204 -264 0
-115 -127 -218 -235 0
-115 -127 -219 -234 0
-115 -128 -203 -272 0
-115 -128 -208 -253 0
-115 -128 -210 -247 0
-115 -128 -214 -238 0
-115 -128 -217 -235 0
-115 -128 -219 -233 0
-115 -129 -203 -271 0
-115 -129 -207 -253 0
-115 -129 -210 -246 0
-115 -129 -217 -234 0
-115 -129 -218 -233 0
-115 -135 -179 -255 0
-115 -135 -180 -254 0
-115 -135 -190 -235 0
-115 -135 -191 -234 0
-115 -136 -178 -255 0
-115 -136 -180 -253 0
-115 -136 -186 -238 0
-115 -136 -189 -235 0
-115 -136 -191 -233 0
-115 -137 -189 -234 0
-115 -137 -190 -233 0
-115 -139 -171 -274 0
-115 -139 -172 -272 0
-115 -139 -173 -271 0
-115 -139 -189 -228 0
-115 -139 -190 -226 0
-115 -139 -191 -225 0
-115 -139 -197 -219 0
-115 -139 -198 -218 0
-115 -139 -200 -217 0
-115 -140 -171 -264 0
-115 -140 -172 -262 0
-115 -140 -173 -261 0
-115 -140 -184 -228 0
-115 -140 -185 -226 0
-115 -140 -186 -225 0
-115 -140 -197 -214 0
-115 -140 -200 -212 0
-115 -146 -171 -249 0
-115 -146 -172 -247 0
-115 -146 -173 -246 0
-115 -146 -178 -228 0
-115 -146 -179 -226 0
-115 -146 -180 -225 0
-115 -146 -197 -208 0
-115 -146 -198 -207 0
-115 -146 -200 -206 0
-115 -161 -169 -235 0
-115 -161 -180 -210 0
-115 -161 -191 -203 0
-115 -162 -169 -234 0
-115 -162 -179 -210 0
-115 -162 -190 -203 0
-115 -164 -169 -233 0
-115 -164 -184 -204 0
-115 -164 -189 -203 0
-116 -126 -203 -276 0
-116 -129 -203 -270 0
-116 -129 -209 -252 0
-116 -129 -211 -241 0
-116 -129 -215 -237 0
-116 -134 -180 -256 0
-116 -134 -181 -255 0
-116 -134 -186 -241 0
-116 -134 -187 -240 0
-116 -134 -192 -235 0
-116 -137 -181 -252 0
-116 -137 -187 -237 0
-116 -137 -192 -232 0
-116 -139 -169 -282 0
-116 -139 -170 -276 0
-116 -139 -173 -270 0
-116 -139 -174 -269 0
-116 -139 -188 -230 0
-116 -139 -191 -224 0
-116 -139 -192 -223 0
-116 -139 -195 -220 0
-116 -139 -196 -219 0
-116 -139 -202 -216 0
-116 -140 -170 -266 0
-116 -140 -173 -260 0
-116 -140 -183 -230 0
-116 -140 -186 -224 0
-116 -140 -187 -223 0
-116 -140 -195 -215 0
-116 -140 -196 -214 0
-116 -140 -202 -211 0
-116 -145 -169 -259 0
-116 -145 -170 -255 0
-116 -145 -173 -252 0
-116 -145 -195 -210 0
-116 -146 -170 -251 0
-116 -146 -173 -245 0
-116 -146 -174 -244 0
-116 -146 -177 -230 0
-116 -146 -180 -224 0
-116 -146 -181 -223 0
-116 -146 -195 -209 0
-116 -146 -196 -208 0
-116 -146 -202 -205 0
-116 -151 -169 -244 0
-116 -151 -170 -240 0
-116 -151 -173 -237 0
-116 -151 -177 -219 0
-116 -151 -188 -208 0
-116 -151 -195 -204 0
-116 -156 -170 -235 0
-116 -156 -173 -232 0
-116 -156 -180 -211 0
-116 -156 -186 -205 0
-116 -156 -195 -203 0
-116 -159 -192 -203 0
-117 -126 -203 -275 0
-117 -126 -209 -254 0
-117 -126 -220 -234 0
-117 -128 -203 -270 0
-117 -128 -209 -252 0
-117 -128 -211 -241 0
-117 -128 -215 -237 0
-117 -134 -179 -256 0
-117 -134 -181 -254 0
-117 -134 -185 -241 0
-117 -134 -187 -239 0
-117 -134 -192 -234 0
-117 -136 -177 -256 0
-117 -136 -181 -252 0
-117 -136 -187 -237 0
-117 -136 -192 -232 0
-117 -139 -169 -281 0
-117 -139 -170 -275 0
-117 -139 -172 -270 0
-117 -139 -174 -268 0
-117 -139 -188 -229 0
-117 -139 -190 -224 0
-117 -139 -192 -222 0
-117 -139 -194 -220 0
-117 -139 -196 -218 0
-117 -139 -201 -216 0
-117 -140 -170 -265 0
-117 -140 -172 -260 0
-117 -140 -183 -229 0
-117 -140 -185 -224 0
-117 -140 -187 -222 0
-117 -140 -194 -215 0
-117 -140 -196 -213 0
-117 -140 -201 -211 0
-117 -145 -169 -258 0
-117 -145 -170 -254 0
-117 -145 -172 -252 0
-117 -145 -190 -211 0
-117 -145 -194 -210 0
-117 -146 -170 -250 0
-117 -146 -172 -245 0
-117 -146 -174 -243 0
-117 -146 -179 -224 0
-117 -146 -181 -222 0
-117 -146 -194 -209 0
-117 -146 -196 -207 0
-117 -146 -201 -205 0
-117 -151 -170 -239 0
-117 -151 -172 -237 0
-117 -151 -188 -207 0
-117 -151 -194 -204 0
-117 -156 -170 -234 0
-117 -156 -172 -232 0
-117 -156 -179 -211 0
-117 -156 -194 -203 0
-117 -158 -181 -210 0
-117 -158 -192 -203 0
-118 -126 -203 -274 0
-118 -126 -208 -254 0
-118 -126 -218 -235 0
-118 -126 -219 -234 0
-118 -128 -203 -269 0
-118 -128 -214 -237 0
-118 -128 -216 -235 0
-118 -128 -219 -232 0
-118 -129 -203 -268 0
-118 -129 -207 -252 0
-118 -129 -213 -237 0
-118 -129 -216 -234 0
-118 -129 -218 -232 0
-118 -134 -190 -235 0
-118 -134 -191 -234 0
-118 -136 -177 -255 0
-118 -136 -183 -240 0
-118 -136 -186 -237 0
-118 -136 -188 -235 0
-118 -136 -191 -232 0
-118 -137 -177 -254 0
-118 -137 -188 -234 0
-118 -137 -190 -232 0
-118 -139 -169 -280 0
-118 -139 -170 -274 0
-118 -139 -172 -269 0
-118 -139 -173 -268 0
-118 -139 -188 -228 0
-118 -139 -190 -223 0
-118 -139 -191 -222 0
-118 -139 -194 -219 0
-118 -139 -195 -218 0
-118 -139 -200 -216 0
-118 -140 -170 -264 0
-118 -140 -172 -259 0
-118 -140 -173 -258 0
-118 -140 -185 -223 0
-118 -140 -194 -214 0
-118 -140 -195 -213 0
-118 -140 -200 -211 0
-118 -146 -170 -249 0
-118 -146 -172 -244 0
-118 -146 -173 -243 0
-118 -146 -179 -223 0
-118 -146 -180 -222 0
-118 -146 -194 -208 0
-118 -146 -195 -207 0
-118 -146 -200 -205 0
-118 -158 -169 -235 0
-118 -158 -180 -210 0
-118 -158 -186 -204 0
-118 -158 -191 -203 0
-118 -159 -169 -234 0
-118 -159 -179 -210 0
-118 -159 -190 -203 0
-118 -164 -169 -232 0
-118 -164 -188 -203 0
-119 -126 -203 -273 0
-119 -126 -206 -256 0
-119 -126 -210 -248 0
-119 -126 -220 -233 0
-119 -127 -203 -270 0
-119 -127 -205 -256 0
-119 -127 -209 -252 0
-119 -127 -211 -241 0
-119 -127 -215 -237 0
-119 -134 -178 -256 0
-119 -134 -181 -253 0
-119 -134 -184 -241 0
-119 -134 -187 -238 0
-119 -134 -192 -233 0
-119 -135 -181 -252 0
-119 -135 -187 -237 0
-119 -135 -192 -232 0
-119 -139 -169 -279 0
-119 -139 -170 -273 0
-119 -139 -171 -270 0
-119 -139 -174 -267 0
-119 -139 -188 -227 0
-119 -139 -189 -224 0
-119 -139 -192 -221 0
-119 -139 -193 -220 0
-119 -139 -196 -217 0
-119 -139 -199 -216 0
-119 -140 -170 -263 0
-119 -140 -171 -260 0
-119 -140 -174 -257 0
-119 -140 -183 -227 0
-119 -140 -184 -224 0
-119 -140 -187 -221 0
-119 -140 -193 -215 0
-119 -140 -196 -212 0
-119 -140 -199 -211 0
-119 -145 -169 -257 0
-119 -145 -170 -253 0
-119 -145 -171 -252 0
-119 -145 -188 -212 0
-119 -145 -189 -211 0
-119 -145 -193 -210 0
-119 -146 -170 -248 0
-119 -146 -171 -245 0
-119 -146 -174 -242 0
-119 -146 -177 -227 0
-119 -146 -178 -224 0
-119 -146 -181 -221 0
-119 -146 -193 -209 0
-119 -146 -196 -206 0
-119 -146 -199 -205 0
-119 -151 -169 -242 0
-119 -151 -170 -238 0
-119 -151 -171 -237 0
-119 -151 -177 -217 0
-119 -151 -188 -206 0
-119 -151 -189 -205 0
-119 -151 -193 -204 0
-119 -156 -170 -233 0
-119 -156 -171 -232 0
-119 -156 -178 -211 0
-119 -156 -193 -203 0
-119 -157 -187 -204 0
-119 -157 -192 -203 0
-120 -126 -203 -272 0
-120 -126 -204 -262 0
-120 -126 -210 -247 0
-120 -126 -217 -235 0
-120 -126 -219 -233 0
-120 -127 -203 -269 0
-120 -127 -208 -252 0
-120 -127 -214 -237 0
-120 -127 -216 -235 0
-120 -127 -219 -232 0
-120 -129 -203 -267 0
-120 -129 -212 -237 0
-120 -129 -216 -233 0
-120 -129 -217 -232 0
-120 -134 -189 -235 0
-120 -134 -191 -233 0
-120 -135 -180 -252 0
-120 -135 -186 -237 0
-120 -135 -188 -235 0
-120 -135 -191 -232 0
-120 -137 -184 -237 0
-120 -137 -188 -233 0
-120 -137 -189 -232 0
-120 -139 -170 -272 0
-120 -139 -171 -269 0
-120 -139 -173 -267 0
-120 -139 -188 -226 0
-120 -139 -189 -223 0
-120 -139 -191 -221 0
-120 -139 -193 -219 0
-120 -139 -195 -217 0
-120 -139 -198 -216 0
-120 -140 -170 -262 0
-120 -140 -171 -259 0
-120 -140 -173 -257 0
-120 -140 -183 -226 0
-120 -140 -184 -223 0
-120 -140 -186 -221 0
-120 -140 -193 -214 0
-120 -140 -198 -211 0
-120 -146 -170 -247 0
-120 -146 -171 -244 0
-120 -146 -173 -242 0
-120 -146 -177 -226 0
-120 -146 -178 -223 0
-120 -146 -193 -208 0
-120 -146 -195 -206 0
-120 -146 -198 -205 0
-120 -157 -169 -235 0
-120 -157 -186 -204 0
-120 -157 -191 -203 0
-120 -159 -169 -233 0
-120 -159 -184 -204 0
-120 -159 -189 -203 0
-120 -162 -169 -232 0
-120 -162 -188 -203 0
-121 -126 -203 -271 0
-121 -126 -204 -261 0
-121 -126 -206 -254 0
-121 -126 -210 -246 0
-121 -126 -212 -239 0
-121 -126 -217 -234 0
-121 -126 -218 -233 0
-121 -127 -203 -268 0
-121 -127 -207 -252 0
-121 -127 -210 -243 0
-121 -127 -216 -234 0
-121 -127 -218 -232 0
-121 -128 -203 -267 0
-121 -128 -205 -253 0
-121 -128 -206 -252 0
-121 -128 -211 -238 0
-121 -128 -216 -233 0
-121 -128 -217 -232 0
-121 -134 -178 -254 0
-121 -134 -179 -253 0
-121 -134 -184 -239 0
-121 -134 -189 -234 0
-121 -134 -190 -233 0
-121 -135 -188 -234 0
-121 -135 -190 -232 0
-121 -136 -184 -237 0
-121 -136 -188 -233 0
-121 -136 -189 -232 0
-121 -139 -169 -277 0
-121 -139 -170 -271 0
-121 -139 -171 -268 0
-121 -139 -172 -267 0
-121 -139 -188 -225 0
-121 -139 -189 -222 0
-121 -139 -190 -221 0
-121 -139 -193 -218 0
-121 -139 -194 -217 0
-121 -139 -197 -216 0
-121 -140 -170 -261 0
-121 -140 -171 -258 0
-121 -140 -172 -257 0
-121 -140 -183 -225 0
-121 -140 -184 -222 0
-121 -140 -193 -213 0
-121 -140 -194 -212 0
-121 -140 -197 -211 0
-121 -146 -170 -246 0
-121 -146 -171 -243 0
-121 -146 -172 -242 0
-121 -146 -177 -225 0
-121 -146 -179 -221 0
-121 -146 -193 -207 0
-121 -146 -194 -206 0
-121 -146 -197 -205 0
-121 -157 -169 -234 0
-121 -157 -179 -210 0
-121 -157 -190 -203 0
-121 -158 -169 -233 0
-121 -158 -189 -203 0
-121 -161 -169 -232 0
-121 -161 -183 -204 0
-121 -161 -188 -203 0
1 0
2 0
3 0
4 0
5 0
6 0
-7 0
-8 0
-9 0
-10 0
-11 0
12 0
13 0
-14 0
-15 0
-16 0
17 0
18 0
19 0
20 0
-21 0
23 0
24 0
-25 0
