p cnf 286 2817
-2 -3 -4 -22 -23 -31 0
-2 -3 -5 -22 -24 -32 0
-2 -3 -6 -22 -25 -33 0
-2 -4 -5 -23 -24 -39 0
-2 -4 -6 -23 -25 -40 0
-2 -5 -6 -24 -25 -46 0
-3 -4 -5 -31 -32 -39 0
-3 -4 -6 -31 -33 -40 0
-3 -5 -6 -32 -33 -46 0
-4 -5 -6 -39 -40 -46 0
7 8 9 57 58 61 0
7 8 10 57 59 62 0
7 8 11 57 60 63 0
7 9 10 58 59 64 0
7 9 11 58 60 65 0
7 10 11 59 60 66 0
8 9 10 61 62 64 0
8 9 11 61 63 65 0
8 10 11 62 63 66 0
9 10 11 64 65 66 0
13 14 15 31 32 39 0
13 14 16 31 33 40 0
13 14 18 31 35 42 0
13 14 19 31 36 43 0
13 14 20 31 37 44 0
13 14 21 31 38 45 0
13 15 16 32 33 46 0
13 15 18 32 35 48 0
13 15 19 32 36 49 0
13 15 20 32 37 50 0
13 15 21 32 38 51 0
13 16 18 33 35 53 0
13 16 19 33 36 54 0
13 16 20 33 37 55 0
13 16 21 33 38 56 0
13 18 19 35 36 61 0
13 18 20 35 37 62 0
13 18 21 35 38 63 0
13 19 20 36 37 64 0
13 19 21 36 38 65 0
13 20 21 37 38 66 0
14 15 16 39 40 46 0
14 15 18 39 42 48 0
14 15 19 39 43 49 0
14 15 20 39 44 50 0
14 15 21 39 45 51 0
14 16 18 40 42 53 0
14 16 19 40 43 54 0
14 16 20 40 44 55 0
14 16 21 40 45 56 0
14 18 19 42 43 61 0
14 18 20 42 44 62 0
14 18 21 42 45 63 0
14 19 20 43 44 64 0
14 19 21 43 45 65 0
14 20 21 44 45 66 0
15 16 18 46 48 53 0
15 16 19 46 49 54 0
15 16 20 46 50 55 0
15 16 21 46 51 56 0
15 18 19 48 49 61 0
15 18 20 48 50 62 0
15 18 21 48 51 63 0
15 19 20 49 50 64 0
15 19 21 49 51 65 0
15 20 21 50 51 66 0
16 18 19 53 54 61 0
16 18 20 53 55 62 0
16 18 21 53 56 63 0
16 19 20 54 55 64 0
16 19 21 54 56 65 0
16 20 21 55 56 66 0
22 23 26 31 34 41 0
22 25 26 33 34 52 0
-22 -27 -28 -35 -36 -61 0
-22 -27 -29 -35 -37 -62 0
-22 -27 -30 -35 -38 -63 0
-22 -28 -29 -36 -37 -64 0
-22 -28 -30 -36 -38 -65 0
-22 -29 -30 -37 -38 -66 0
23 24 26 39 41 47 0
-23 -24 -27 -39 -42 -48 0
23 25 26 40 41 52 0
23 26 28 41 43 58 0
23 26 29 41 44 59 0
-23 -27 -28 -42 -43 -61 0
-23 -27 -29 -42 -44 -62 0
-23 -27 -30 -42 -45 -63 0
-23 -28 -29 -43 -44 -64 0
-23 -28 -30 -43 -45 -65 0
-23 -29 -30 -44 -45 -66 0
24 25 26 46 47 52 0
24 26 27 47 48 57 0
24 26 30 47 51 60 0
-24 -27 -28 -48 -49 -61 0
-24 -27 -29 -48 -50 -62 0
-24 -27 -30 -48 -51 -63 0
-24 -28 -29 -49 -50 -64 0
-24 -28 -30 -49 -51 -65 0
-24 -29 -30 -50 -51 -66 0
25 26 27 52 53 57 0
25 26 29 52 55 59 0
-25 -27 -28 -53 -54 -61 0
-25 -27 -29 -53 -55 -62 0
-25 -27 -30 -53 -56 -63 0
-25 -28 -29 -54 -55 -64 0
-25 -28 -30 -54 -56 -65 0
-25 -29 -30 -55 -56 -66 0
25 29 30 55 56 66 0
26 29 30 59 60 66 0
-27 -28 -29 -61 -62 -64 0
-27 -28 -30 -61 -63 -65 0
-27 -29 -30 -62 -63 -66 0
-28 -29 -30 -64 -65 -66 0
-31 -34 -35 -41 -42 -57 0
-31 -34 -36 -41 -43 -58 0
-31 -34 -38 -41 -45 -60 0
-31 -35 -36 -42 -43 -61 0
-31 -35 -37 -42 -44 -62 0
-31 -35 -38 -42 -45 -63 0
-31 -36 -37 -43 -44 -64 0
-31 -36 -38 -43 -45 -65 0
-31 -37 -38 -44 -45 -66 0
-32 -34 -35 -47 -48 -57 0
-32 -34 -36 -47 -49 -58 0
-32 -34 -37 -47 -50 -59 0
-32 -34 -38 -47 -51 -60 0
-32 -35 -36 -48 -49 -61 0
-32 -35 -37 -48 -50 -62 0
-32 -35 -38 -48 -51 -63 0
-32 -36 -37 -49 -50 -64 0
-32 -36 -38 -49 -51 -65 0
-32 -37 -38 -50 -51 -66 0
-33 -34 -35 -52 -53 -57 0
-33 -34 -36 -52 -54 -58 0
33 34 36 52 54 58 0
-33 -34 -37 -52 -55 -59 0
-33 -34 -38 -52 -56 -60 0
-33 -35 -36 -53 -54 -61 0
-33 -35 -37 -53 -55 -62 0
-33 -35 -38 -53 -56 -63 0
-33 -36 -37 -54 -55 -64 0
-33 -36 -38 -54 -56 -65 0
-33 -37 -38 -55 -56 -66 0
-34 -35 -36 -57 -58 -61 0
-34 -35 -37 -57 -59 -62 0
-34 -35 -38 -57 -60 -63 0
-34 -36 -37 -58 -59 -64 0
-34 -36 -38 -58 -60 -65 0
-34 -37 -38 -59 -60 -66 0
-35 -36 -37 -61 -62 -64 0
-35 -36 -38 -61 -63 -65 0
-35 -37 -38 -62 -63 -66 0
-36 -37 -38 -64 -65 -66 0
-39 -41 -42 -47 -48 -57 0
-39 -41 -43 -47 -49 -58 0
-39 -41 -44 -47 -50 -59 0
-39 -41 -45 -47 -51 -60 0
-39 -42 -43 -48 -49 -61 0
-39 -42 -44 -48 -50 -62 0
-39 -42 -45 -48 -51 -63 0
-39 -43 -44 -49 -50 -64 0
-39 -43 -45 -49 -51 -65 0
-39 -44 -45 -50 -51 -66 0
-40 -41 -42 -52 -53 -57 0
-40 -41 -43 -52 -54 -58 0
-40 -41 -44 -52 -55 -59 0
-40 -41 -45 -52 -56 -60 0
-40 -42 -43 -53 -54 -61 0
-40 -42 -44 -53 -55 -62 0
-40 -42 -45 -53 -56 -63 0
-40 -43 -44 -54 -55 -64 0
-40 -43 -45 -54 -56 -65 0
-40 -44 -45 -55 -56 -66 0
-41 -42 -43 -57 -58 -61 0
-41 -42 -44 -57 -59 -62 0
-41 -42 -45 -57 -60 -63 0
-41 -43 -44 -58 -59 -64 0
-41 -44 -45 -59 -60 -66 0
-42 -43 -44 -61 -62 -64 0
-42 -43 -45 -61 -63 -65 0
-42 -44 -45 -62 -63 -66 0
-43 -44 -45 -64 -65 -66 0
-46 -47 -48 -52 -53 -57 0
-46 -47 -50 -52 -55 -59 0
-46 -47 -51 -52 -56 -60 0
-46 -48 -49 -53 -54 -61 0
-46 -48 -50 -53 -55 -62 0
-46 -48 -51 -53 -56 -63 0
-46 -49 -50 -54 -55 -64 0
-46 -49 -51 -54 -56 -65 0
-46 -50 -51 -55 -56 -66 0
-47 -48 -49 -57 -58 -61 0
-47 -48 -50 -57 -59 -62 0
-47 -48 -51 -57 -60 -63 0
-47 -49 -50 -58 -59 -64 0
-47 -49 -51 -58 -60 -65 0
-47 -50 -51 -59 -60 -66 0
-48 -49 -50 -61 -62 -64 0
-48 -49 -51 -61 -63 -65 0
-48 -50 -51 -62 -63 -66 0
-49 -50 -51 -64 -65 -66 0
-52 -53 -54 -57 -58 -61 0
-52 -53 -55 -57 -59 -62 0
-52 -53 -56 -57 -60 -63 0
-52 -54 -55 -58 -59 -64 0
-52 -54 -56 -58 -60 -65 0
-52 -55 -56 -59 -60 -66 0
-53 -54 -55 -61 -62 -64 0
-53 -54 -56 -61 -63 -65 0
-53 -55 -56 -62 -63 -66 0
-54 -55 -56 -64 -65 -66 0
-57 -58 -59 -61 -62 -64 0
-57 -58 -60 -61 -63 -65 0
-57 -59 -60 -62 -63 -66 0
-58 -59 -60 -64 -65 -66 0
-61 -62 -63 -64 -65 -66 0
67 -1 -2 -12 0
77 -2 -3 -22 0
78 -2 -4 -23 0
79 -2 -5 -24 0
80 -2 -6 -25 0
86 -3 -4 -31 0
87 -3 -5 -32 0
88 -3 -6 -33 0
94 -4 -5 -39 0
95 -4 -6 -40 0
101 -5 -6 -46 0
112 7 8 57 0
113 7 9 58 0
114 7 10 59 0
115 7 11 60 0
116 8 9 61 0
117 8 10 62 0
118 8 11 63 0
119 9 10 64 0
120 9 11 65 0
121 10 11 66 0
126 -12 -17 -26 0
131 13 14 31 0
132 13 15 32 0
133 13 16 33 0
135 13 18 35 0
136 13 19 36 0
137 13 20 37 0
138 13 21 38 0
139 14 15 39 0
140 14 16 40 0
142 14 18 42 0
143 14 19 43 0
144 14 20 44 0
145 14 21 45 0
146 15 16 46 0
148 15 18 48 0
149 15 19 49 0
150 15 20 50 0
151 15 21 51 0
153 16 18 53 0
154 16 19 54 0
155 16 20 55 0
156 16 21 56 0
161 18 19 61 0
162 18 20 62 0
163 18 21 63 0
164 19 20 64 0
165 19 21 65 0
166 20 21 66 0
167 22 23 31 0
168 -22 -24 -32 0
168 22 24 32 0
169 22 25 33 0
170 -22 -26 -34 0
170 22 26 34 0
171 -22 -27 -35 0
171 22 27 35 0
172 -22 -28 -36 0
172 22 28 36 0
173 -22 -29 -37 0
173 22 29 37 0
174 -22 -30 -38 0
174 22 30 38 0
175 23 24 39 0
176 23 25 40 0
177 -23 -26 -41 0
177 23 26 41 0
178 -23 -27 -42 0
178 23 27 42 0
179 -23 -28 -43 0
179 23 28 43 0
180 -23 -29 -44 0
180 23 29 44 0
181 -23 -30 -45 0
181 23 30 45 0
182 -24 -25 -46 0
182 24 25 46 0
183 24 26 47 0
184 -24 -27 -48 0
184 24 27 48 0
185 -24 -28 -49 0
185 24 28 49 0
186 -24 -29 -50 0
186 24 29 50 0
187 -24 -30 -51 0
187 24 30 51 0
188 25 26 52 0
189 -25 -27 -53 0
189 25 27 53 0
190 -25 -28 -54 0
190 25 28 54 0
191 -25 -29 -55 0
191 25 29 55 0
192 -25 -30 -56 0
192 25 30 56 0
193 26 27 57 0
194 26 28 58 0
195 -26 -29 -59 0
195 26 29 59 0
196 -26 -30 -60 0
196 26 30 60 0
197 -27 -28 -61 0
198 -27 -29 -62 0
198 27 29 62 0
199 -27 -30 -63 0
199 27 30 63 0
200 -28 -29 -64 0
200 28 29 64 0
201 -28 -30 -65 0
201 28 30 65 0
202 -29 -30 -66 0
202 29 30 66 0
204 -31 -33 -40 0
205 -31 -34 -41 0
205 31 34 41 0
206 -31 -35 -42 0
207 -31 -36 -43 0
208 -31 -37 -44 0
209 -31 -38 -45 0
210 -32 -33 -46 0
211 -32 -34 -47 0
211 32 34 47 0
212 -32 -35 -48 0
213 -32 -36 -49 0
214 -32 -37 -50 0
215 -32 -38 -51 0
216 -33 -34 -52 0
216 33 34 52 0
217 -33 -35 -53 0
218 -33 -36 -54 0
219 -33 -37 -55 0
220 -33 -38 -56 0
221 -34 -35 -57 0
221 34 35 57 0
222 -34 -36 -58 0
222 34 36 58 0
223 -34 -37 -59 0
223 34 37 59 0
224 -34 -38 -60 0
224 34 38 60 0
225 -35 -36 -61 0
225 35 36 61 0
226 -35 -37 -62 0
227 -35 -38 -63 0
228 -36 -37 -64 0
228 36 37 64 0
229 -36 -38 -65 0
230 -37 -38 -66 0
232 -39 -41 -47 0
232 39 41 47 0
233 -39 -42 -48 0
233 39 42 48 0
234 -39 -43 -49 0
235 -39 -44 -50 0
236 -39 -45 -51 0
237 -40 -41 -52 0
237 40 41 52 0
238 -40 -42 -53 0
238 40 42 53 0
239 -40 -43 -54 0
240 -40 -44 -55 0
240 40 44 55 0
241 -40 -45 -56 0
242 -41 -42 -57 0
242 41 42 57 0
243 -41 -43 -58 0
243 41 43 58 0
244 -41 -44 -59 0
244 41 44 59 0
245 -41 -45 -60 0
245 41 45 60 0
246 -42 -43 -61 0
247 -42 -44 -62 0
247 42 44 62 0
248 -42 -45 -63 0
249 -43 -44 -64 0
250 -43 -45 -65 0
251 -44 -45 -66 0
252 -46 -47 -52 0
252 46 47 52 0
253 -46 -48 -53 0
254 -46 -49 -54 0
255 -46 -50 -55 0
256 -46 -51 -56 0
256 46 51 56 0
257 -47 -48 -57 0
257 47 48 57 0
258 -47 -49 -58 0
258 47 49 58 0
259 -47 -50 -59 0
259 47 50 59 0
260 -47 -51 -60 0
260 47 51 60 0
261 -48 -49 -61 0
262 -48 -50 -62 0
262 48 50 62 0
263 -48 -51 -63 0
264 -49 -50 -64 0
265 -49 -51 -65 0
266 -50 -51 -66 0
266 50 51 66 0
267 -52 -53 -57 0
267 52 53 57 0
268 -52 -54 -58 0
268 52 54 58 0
269 -52 -55 -59 0
269 52 55 59 0
270 -52 -56 -60 0
270 52 56 60 0
271 -53 -54 -61 0
272 -53 -55 -62 0
272 53 55 62 0
273 -53 -56 -63 0
274 -54 -55 -64 0
274 54 55 64 0
275 -54 -56 -65 0
275 54 56 65 0
276 -55 -56 -66 0
277 -57 -58 -61 0
278 -57 -59 -62 0
278 57 59 62 0
279 -57 -60 -63 0
279 57 60 63 0
280 -58 -59 -64 0
281 -58 -60 -65 0
282 -59 -60 -66 0
283 -61 -62 -64 0
284 -61 -63 -65 0
285 -62 -63 -66 0
286 -64 -65 -66 0
-67 -204 -265 -278 0
-67 -205 -253 -286 0
-67 -205 -254 -285 0
-67 -205 -255 -284 0
-67 -205 -256 -283 0
-67 -205 -261 -276 0
-67 -205 -262 -275 0
-67 -205 -263 -274 0
-67 -205 -264 -273 0
-67 -205 -265 -272 0
-67 -205 -266 -271 0
-67 -206 -252 -286 0
-67 -206 -254 -282 0
-67 -206 -255 -281 0
-67 -206 -256 -280 0
-67 -206 -258 -276 0
-67 -206 -259 -275 0
-67 -206 -260 -274 0
-67 -206 -264 -270 0
-67 -206 -265 -269 0
-67 -206 -266 -268 0
-67 -207 -252 -285 0
-67 -207 -253 -282 0
-67 -207 -255 -279 0
-67 -207 -256 -278 0
-67 -207 -257 -276 0
-67 -207 -259 -273 0
-67 -207 -260 -272 0
-67 -207 -262 -270 0
-67 -207 -263 -269 0
-67 -207 -266 -267 0
-67 -208 -252 -284 0
-67 -208 -253 -281 0
-67 -208 -254 -279 0
-67 -208 -256 -277 0
-67 -208 -257 -275 0
-67 -208 -258 -273 0
-67 -208 -260 -271 0
-67 -208 -261 -270 0
-67 -208 -263 -268 0
-67 -208 -265 -267 0
-67 -209 -252 -283 0
-67 -209 -253 -280 0
-67 -209 -254 -278 0
-67 -209 -255 -277 0
-67 -209 -257 -274 0
-67 -209 -258 -272 0
-67 -209 -259 -271 0
-67 -209 -261 -269 0
-67 -209 -262 -268 0
-67 -209 -264 -267 0
-67 -211 -238 -286 0
-67 -211 -239 -285 0
-67 -211 -240 -284 0
-67 -211 -241 -283 0
-67 -211 -246 -276 0
-67 -211 -247 -275 0
-67 -211 -248 -274 0
-67 -211 -249 -273 0
-67 -211 -250 -272 0
-67 -211 -251 -271 0
-67 -212 -237 -286 0
-67 -212 -239 -282 0
-67 -212 -240 -281 0
-67 -212 -241 -280 0
-67 -212 -243 -276 0
-67 -212 -244 -275 0
-67 -212 -245 -274 0
-67 -212 -249 -270 0
-67 -212 -250 -269 0
-67 -212 -251 -268 0
-67 -213 -237 -285 0
-67 -213 -238 -282 0
-67 -213 -240 -279 0
-67 -213 -241 -278 0
-67 -213 -242 -276 0
-67 -213 -244 -273 0
-67 -213 -245 -272 0
-67 -213 -247 -270 0
-67 -213 -248 -269 0
-67 -213 -251 -267 0
-67 -214 -237 -284 0
-67 -214 -238 -281 0
-67 -214 -239 -279 0
-67 -214 -241 -277 0
-67 -214 -242 -275 0
-67 -214 -243 -273 0
-67 -214 -245 -271 0
-67 -214 -246 -270 0
-67 -214 -248 -268 0
-67 -214 -250 -267 0
-67 -215 -237 -283 0
-67 -215 -238 -280 0
-67 -215 -239 -278 0
-67 -215 -240 -277 0
-67 -215 -242 -274 0
-67 -215 -243 -272 0
-67 -215 -244 -271 0
-67 -215 -246 -269 0
-67 -215 -247 -268 0
-67 -215 -249 -267 0
-67 -216 -233 -286 0
-67 -216 -234 -285 0
-67 -216 -235 -284 0
-67 -216 -236 -283 0
-67 -216 -246 -266 0
-67 -216 -247 -265 0
-67 -216 -248 -264 0
-67 -216 -249 -263 0
-67 -216 -250 -262 0
-67 -216 -251 -261 0
-67 -217 -232 -286 0
-67 -217 -234 -282 0
-67 -217 -235 -281 0
-67 -217 -236 -280 0
-67 -217 -243 -266 0
-67 -217 -244 -265 0
-67 -217 -245 -264 0
-67 -217 -249 -260 0
-67 -217 -250 -259 0
-67 -217 -251 -258 0
-67 -218 -232 -285 0
-67 -218 -233 -282 0
-67 -218 -235 -279 0
-67 -218 -236 -278 0
-67 -218 -242 -266 0
-67 -218 -244 -263 0
-67 -218 -245 -262 0
-67 -218 -247 -260 0
-67 -218 -248 -259 0
-67 -218 -251 -257 0
-67 -219 -232 -284 0
-67 -219 -233 -281 0
-67 -219 -234 -279 0
-67 -219 -236 -277 0
-67 -219 -242 -265 0
-67 -219 -243 -263 0
-67 -219 -245 -261 0
-67 -219 -246 -260 0
-67 -219 -248 -258 0
-67 -219 -250 -257 0
-67 -220 -232 -283 0
-67 -220 -233 -280 0
-67 -220 -234 -278 0
-67 -220 -235 -277 0
-67 -220 -242 -264 0
-67 -220 -243 -262 0
-67 -220 -244 -261 0
-67 -220 -246 -259 0
-67 -220 -247 -258 0
-67 -220 -249 -257 0
-67 -221 -234 -276 0
-67 -221 -235 -275 0
-67 -221 -236 -274 0
-67 -221 -239 -266 0
-67 -221 -240 -265 0
-67 -221 -241 -264 0
-67 -221 -249 -256 0
-67 -221 -250 -255 0
-67 -221 -251 -254 0
-67 -222 -233 -276 0
-67 -222 -235 -273 0
-67 -222 -236 -272 0
-67 -222 -238 -266 0
-67 -222 -240 -263 0
-67 -222 -241 -262 0
-67 -222 -247 -256 0
-67 -222 -248 -255 0
-67 -222 -251 -253 0
-67 -223 -233 -275 0
-67 -223 -234 -273 0
-67 -223 -236 -271 0
-67 -223 -238 -265 0
-67 -223 -239 -263 0
-67 -223 -241 -261 0
-67 -223 -246 -256 0
-67 -223 -248 -254 0
-67 -223 -250 -253 0
-67 -224 -233 -274 0
-67 -224 -234 -272 0
-67 -224 -235 -271 0
-67 -224 -238 -264 0
-67 -224 -239 -262 0
-67 -224 -240 -261 0
-67 -224 -246 -255 0
-67 -224 -247 -254 0
-67 -224 -249 -253 0
-67 -225 -232 -276 0
-67 -225 -235 -270 0
-67 -225 -236 -269 0
-67 -225 -237 -266 0
-67 -225 -240 -260 0
-67 -225 -241 -259 0
-67 -225 -244 -256 0
-67 -225 -245 -255 0
-67 -225 -251 -252 0
-67 -226 -232 -275 0
-67 -226 -234 -270 0
-67 -226 -236 -268 0
-67 -226 -237 -265 0
-67 -226 -239 -260 0
-67 -226 -241 -258 0
-67 -226 -243 -256 0
-67 -226 -245 -254 0
-67 -226 -250 -252 0
-67 -227 -232 -274 0
-67 -227 -234 -269 0
-67 -227 -235 -268 0
-67 -227 -237 -264 0
-67 -227 -239 -259 0
-67 -227 -240 -258 0
-67 -227 -243 -255 0
-67 -227 -244 -254 0
-67 -227 -249 -252 0
-67 -228 -232 -273 0
-67 -228 -233 -270 0
-67 -228 -236 -267 0
-67 -228 -237 -263 0
-67 -228 -238 -260 0
-67 -228 -241 -257 0
-67 -228 -242 -256 0
-67 -228 -245 -253 0
-67 -228 -248 -252 0
-67 -229 -232 -272 0
-67 -229 -233 -269 0
-67 -229 -235 -267 0
-67 -229 -237 -262 0
-67 -229 -238 -259 0
-67 -229 -240 -257 0
-67 -229 -242 -255 0
-67 -229 -244 -253 0
-67 -229 -247 -252 0
-67 -230 -232 -271 0
-67 -230 -233 -268 0
-67 -230 -234 -267 0
-67 -230 -237 -261 0
-67 -230 -238 -258 0
-67 -230 -239 -257 0
-67 -230 -242 -254 0
-67 -230 -243 -253 0
-67 -230 -246 -252 0
-77 -139 -267 -286 0
-77 -139 -269 -284 0
-77 -139 -270 -283 0
-77 -139 -271 -282 0
-77 -139 -272 -281 0
-77 -139 -273 -280 0
-77 -139 -274 -279 0
-77 -139 -275 -278 0
-77 -139 -276 -277 0
-77 -140 -257 -286 0
-77 -140 -258 -285 0
-77 -140 -259 -284 0
-77 -140 -260 -283 0
-77 -140 -261 -282 0
-77 -140 -262 -281 0
-77 -140 -263 -280 0
-77 -140 -264 -279 0
-77 -140 -265 -278 0
-77 -140 -266 -277 0
-77 -142 -254 -282 0
-77 -142 -255 -281 0
-77 -142 -260 -274 0
-77 -142 -266 -268 0
-77 -143 -253 -282 0
-77 -143 -255 -279 0
-77 -143 -256 -278 0
-77 -143 -257 -276 0
-77 -143 -259 -273 0
-77 -143 -260 -272 0
-77 -143 -262 -270 0
-77 -143 -263 -269 0
-77 -143 -266 -267 0
-77 -144 -256 -277 0
-77 -144 -257 -275 0
-77 -144 -258 -273 0
-77 -144 -260 -271 0
-77 -144 -261 -270 0
-77 -144 -263 -268 0
-77 -144 -265 -267 0
-77 -145 -253 -280 0
-77 -145 -255 -277 0
-77 -145 -257 -274 0
-77 -145 -258 -272 0
-77 -145 -259 -271 0
-77 -145 -262 -268 0
-77 -145 -264 -267 0
-77 -146 -242 -286 0
-77 -146 -243 -285 0
-77 -146 -244 -284 0
-77 -146 -245 -283 0
-77 -146 -246 -282 0
-77 -146 -247 -281 0
-77 -146 -248 -280 0
-77 -146 -249 -279 0
-77 -146 -250 -278 0
-77 -146 -251 -277 0
-77 -148 -237 -286 0
-77 -148 -239 -282 0
-77 -148 -240 -281 0
-77 -148 -243 -276 0
-77 -148 -244 -275 0
-77 -148 -245 -274 0
-77 -148 -249 -270 0
-77 -148 -250 -269 0
-77 -148 -251 -268 0
-77 -149 -238 -282 0
-77 -149 -240 -279 0
-77 -149 -241 -278 0
-77 -149 -242 -276 0
-77 -149 -244 -273 0
-77 -149 -245 -272 0
-77 -149 -247 -270 0
-77 -149 -251 -267 0
-77 -150 -238 -281 0
-77 -150 -245 -271 0
-77 -150 -246 -270 0
-77 -150 -248 -268 0
-77 -150 -250 -267 0
-77 -151 -238 -280 0
-77 -151 -239 -278 0
-77 -151 -240 -277 0
-77 -151 -242 -274 0
-77 -151 -243 -272 0
-77 -151 -244 -271 0
-77 -151 -246 -269 0
-77 -151 -247 -268 0
-77 -151 -249 -267 0
-77 -153 -232 -286 0
-77 -153 -234 -282 0
-77 -153 -235 -281 0
-77 -153 -243 -266 0
-77 -153 -244 -265 0
-77 -153 -245 -264 0
-77 -153 -249 -260 0
-77 -153 -250 -259 0
-77 -153 -251 -258 0
-77 -154 -232 -285 0
-77 -154 -233 -282 0
-77 -154 -235 -279 0
-77 -154 -236 -278 0
-77 -154 -242 -266 0
-77 -154 -244 -263 0
-77 -154 -245 -262 0
-77 -154 -247 -260 0
-77 -154 -248 -259 0
-77 -154 -251 -257 0
-77 -155 -234 -279 0
-77 -155 -236 -277 0
-77 -155 -242 -265 0
-77 -155 -245 -261 0
-77 -155 -246 -260 0
-77 -155 -248 -258 0
-77 -155 -250 -257 0
-77 -156 -233 -280 0
-77 -156 -234 -278 0
-77 -156 -235 -277 0
-77 -156 -242 -264 0
-77 -156 -243 -262 0
-77 -156 -244 -261 0
-77 -156 -246 -259 0
-77 -156 -247 -258 0
-77 -156 -249 -257 0
-77 -161 -232 -276 0
-77 -161 -235 -270 0
-77 -161 -236 -269 0
-77 -161 -237 -266 0
-77 -161 -240 -260 0
-77 -161 -241 -259 0
-77 -161 -244 -256 0
-77 -161 -245 -255 0
-77 -161 -251 -252 0
-77 -162 -232 -275 0
-77 -162 -234 -270 0
-77 -162 -236 -268 0
-77 -162 -237 -265 0
-77 -162 -239 -260 0
-77 -162 -241 -258 0
-77 -162 -243 -256 0
-77 -162 -245 -254 0
-77 -162 -250 -252 0
-77 -163 -232 -274 0
-77 -163 -234 -269 0
-77 -163 -235 -268 0
-77 -163 -237 -264 0
-77 -163 -239 -259 0
-77 -163 -240 -258 0
-77 -163 -243 -255 0
-77 -163 -244 -254 0
-77 -163 -249 -252 0
-77 -164 -232 -273 0
-77 -164 -233 -270 0
-77 -164 -236 -267 0
-77 -164 -237 -263 0
-77 -164 -238 -260 0
-77 -164 -241 -257 0
-77 -164 -245 -253 0
-77 -164 -248 -252 0
-77 -165 -232 -272 0
-77 -165 -233 -269 0
-77 -165 -235 -267 0
-77 -165 -237 -262 0
-77 -165 -238 -259 0
-77 -165 -240 -257 0
-77 -165 -242 -255 0
-77 -165 -244 -253 0
-77 -165 -247 -252 0
-77 -166 -232 -271 0
-77 -166 -233 -268 0
-77 -166 -234 -267 0
-77 -166 -238 -258 0
-77 -166 -239 -257 0
-77 -166 -243 -253 0
-77 -166 -246 -252 0
-78 -132 -267 -286 0
-78 -132 -268 -285 0
-78 -132 -269 -284 0
-78 -132 -270 -283 0
-78 -132 -271 -282 0
-78 -132 -272 -281 0
-78 -132 -273 -280 0
-78 -132 -274 -279 0
-78 -132 -275 -278 0
-78 -132 -276 -277 0
-78 -133 -257 -286 0
-78 -133 -258 -285 0
-78 -133 -259 -284 0
-78 -133 -260 -283 0
-78 -133 -261 -282 0
-78 -133 -262 -281 0
-78 -133 -263 -280 0
-78 -133 -264 -279 0
-78 -133 -265 -278 0
-78 -133 -266 -277 0
-78 -135 -258 -276 0
-78 -135 -259 -275 0
-78 -135 -260 -274 0
-78 -135 -264 -270 0
-78 -135 -265 -269 0
-78 -135 -266 -268 0
-78 -136 -255 -279 0
-78 -136 -256 -278 0
-78 -136 -257 -276 0
-78 -136 -259 -273 0
-78 -136 -260 -272 0
-78 -136 -262 -270 0
-78 -136 -263 -269 0
-78 -136 -266 -267 0
-78 -137 -256 -277 0
-78 -137 -260 -271 0
-78 -137 -263 -268 0
-78 -137 -265 -267 0
-78 -138 -255 -277 0
-78 -138 -258 -272 0
-78 -138 -259 -271 0
-78 -138 -261 -269 0
-78 -138 -262 -268 0
-78 -138 -264 -267 0
-78 -146 -221 -286 0
-78 -146 -222 -285 0
-78 -146 -223 -284 0
-78 -146 -224 -283 0
-78 -146 -225 -282 0
-78 -146 -226 -281 0
-78 -146 -227 -280 0
-78 -146 -228 -279 0
-78 -146 -229 -278 0
-78 -146 -230 -277 0
-78 -148 -216 -286 0
-78 -148 -218 -282 0
-78 -148 -219 -281 0
-78 -148 -220 -280 0
-78 -148 -222 -276 0
-78 -148 -223 -275 0
-78 -148 -224 -274 0
-78 -148 -228 -270 0
-78 -148 -229 -269 0
-78 -148 -230 -268 0
-78 -149 -216 -285 0
-78 -149 -217 -282 0
-78 -149 -219 -279 0
-78 -149 -220 -278 0
-78 -149 -221 -276 0
-78 -149 -223 -273 0
-78 -149 -224 -272 0
-78 -149 -226 -270 0
-78 -149 -227 -269 0
-78 -149 -230 -267 0
-78 -150 -218 -279 0
-78 -150 -220 -277 0
-78 -150 -221 -275 0
-78 -150 -222 -273 0
-78 -150 -224 -271 0
-78 -150 -225 -270 0
-78 -150 -227 -268 0
-78 -150 -229 -267 0
-78 -151 -217 -280 0
-78 -151 -219 -277 0
-78 -151 -221 -274 0
-78 -151 -222 -272 0
-78 -151 -223 -271 0
-78 -151 -225 -269 0
-78 -151 -228 -267 0
-78 -153 -211 -286 0
-78 -153 -213 -282 0
-78 -153 -214 -281 0
-78 -153 -222 -266 0
-78 -153 -223 -265 0
-78 -153 -224 -264 0
-78 -153 -228 -260 0
-78 -153 -229 -259 0
-78 -153 -230 -258 0
-78 -154 -211 -285 0
-78 -154 -214 -279 0
-78 -154 -215 -278 0
-78 -154 -221 -266 0
-78 -154 -223 -263 0
-78 -154 -224 -262 0
-78 -154 -226 -260 0
-78 -154 -227 -259 0
-78 -154 -230 -257 0
-78 -155 -212 -281 0
-78 -155 -213 -279 0
-78 -155 -215 -277 0
-78 -155 -221 -265 0
-78 -155 -224 -261 0
-78 -155 -225 -260 0
-78 -155 -227 -258 0
-78 -155 -229 -257 0
-78 -156 -214 -277 0
-78 -156 -221 -264 0
-78 -156 -222 -262 0
-78 -156 -223 -261 0
-78 -156 -225 -259 0
-78 -156 -226 -258 0
-78 -156 -228 -257 0
-78 -161 -211 -276 0
-78 -161 -214 -270 0
-78 -161 -216 -266 0
-78 -161 -219 -260 0
-78 -161 -220 -259 0
-78 -161 -223 -256 0
-78 -161 -224 -255 0
-78 -161 -230 -252 0
-78 -162 -211 -275 0
-78 -162 -213 -270 0
-78 -162 -215 -268 0
-78 -162 -216 -265 0
-78 -162 -218 -260 0
-78 -162 -220 -258 0
-78 -162 -222 -256 0
-78 -162 -224 -254 0
-78 -162 -229 -252 0
-78 -163 -211 -274 0
-78 -163 -213 -269 0
-78 -163 -214 -268 0
-78 -163 -216 -264 0
-78 -163 -218 -259 0
-78 -163 -219 -258 0
-78 -163 -228 -252 0
-78 -164 -211 -273 0
-78 -164 -212 -270 0
-78 -164 -215 -267 0
-78 -164 -216 -263 0
-78 -164 -217 -260 0
-78 -164 -220 -257 0
-78 -164 -221 -256 0
-78 -164 -224 -253 0
-78 -164 -227 -252 0
-78 -165 -211 -272 0
-78 -165 -212 -269 0
-78 -165 -214 -267 0
-78 -165 -216 -262 0
-78 -165 -217 -259 0
-78 -165 -219 -257 0
-78 -165 -221 -255 0
-78 -165 -223 -253 0
-78 -165 -226 -252 0
-78 -166 -211 -271 0
-78 -166 -212 -268 0
-78 -166 -213 -267 0
-78 -166 -217 -258 0
-78 -166 -218 -257 0
-78 -166 -222 -253 0
-78 -166 -225 -252 0
-79 -131 -267 -286 0
-79 -131 -268 -285 0
-79 -131 -269 -284 0
-79 -131 -270 -283 0
-79 -131 -271 -282 0
-79 -131 -272 -281 0
-79 -131 -273 -280 0
-79 -131 -274 -279 0
-79 -131 -275 -278 0
-79 -131 -276 -277 0
-79 -133 -242 -286 0
-79 -133 -243 -285 0
-79 -133 -244 -284 0
-79 -133 -245 -283 0
-79 -133 -246 -282 0
-79 -133 -247 -281 0
-79 -133 -249 -279 0
-79 -133 -250 -278 0
-79 -133 -251 -277 0
-79 -135 -239 -282 0
-79 -135 -241 -280 0
-79 -135 -243 -276 0
-79 -135 -245 -274 0
-79 -135 -249 -270 0
-79 -136 -241 -278 0
-79 -136 -242 -276 0
-79 -136 -245 -272 0
-79 -136 -247 -270 0
-79 -136 -248 -269 0
-79 -136 -251 -267 0
-79 -137 -238 -281 0
-79 -137 -243 -273 0
-79 -137 -245 -271 0
-79 -137 -246 -270 0
-79 -138 -242 -274 0
-79 -138 -243 -272 0
-79 -138 -244 -271 0
-79 -138 -247 -268 0
-79 -138 -249 -267 0
-79 -140 -221 -286 0
-79 -140 -222 -285 0
-79 -140 -224 -283 0
-79 -140 -225 -282 0
-79 -140 -226 -281 0
-79 -140 -227 -280 0
-79 -140 -228 -279 0
-79 -140 -229 -278 0
-79 -140 -230 -277 0
-79 -142 -218 -282 0
-79 -142 -222 -276 0
-79 -142 -223 -275 0
-79 -142 -224 -274 0
-79 -142 -228 -270 0
-79 -142 -229 -269 0
-79 -142 -230 -268 0
-79 -143 -220 -278 0
-79 -143 -221 -276 0
-79 -143 -223 -273 0
-79 -143 -224 -272 0
-79 -143 -226 -270 0
-79 -144 -217 -281 0
-79 -144 -221 -275 0
-79 -144 -222 -273 0
-79 -144 -224 -271 0
-79 -144 -225 -270 0
-79 -144 -227 -268 0
-79 -144 -229 -267 0
-79 -145 -221 -274 0
-79 -145 -223 -271 0
-79 -145 -225 -269 0
-79 -145 -226 -268 0
-79 -153 -208 -281 0
-79 -153 -222 -251 0
-79 -153 -224 -249 0
-79 -153 -228 -245 0
-79 -153 -229 -244 0
-79 -154 -221 -251 0
-79 -154 -226 -245 0
-79 -154 -227 -244 0
-79 -154 -230 -242 0
-79 -155 -206 -281 0
-79 -155 -221 -250 0
-79 -155 -222 -248 0
-79 -155 -224 -246 0
-79 -155 -225 -245 0
-79 -156 -221 -249 0
-79 -156 -222 -247 0
-79 -156 -223 -246 0
-79 -156 -225 -244 0
-79 -156 -226 -243 0
-79 -156 -228 -242 0
-79 -161 -208 -270 0
-79 -161 -209 -269 0
-79 -161 -219 -245 0
-79 -161 -220 -244 0
-79 -161 -223 -241 0
-79 -161 -224 -240 0
-79 -161 -230 -237 0
-79 -162 -205 -275 0
-79 -162 -207 -270 0
-79 -162 -209 -268 0
-79 -162 -218 -245 0
-79 -162 -220 -243 0
-79 -162 -222 -241 0
-79 -162 -224 -239 0
-79 -162 -229 -237 0
-79 -163 -207 -269 0
-79 -163 -208 -268 0
-79 -163 -216 -249 0
-79 -163 -218 -244 0
-79 -163 -219 -243 0
-79 -163 -222 -240 0
-79 -163 -223 -239 0
-79 -163 -228 -237 0
-79 -164 -205 -273 0
-79 -164 -206 -270 0
-79 -164 -217 -245 0
-79 -164 -220 -242 0
-79 -164 -221 -241 0
-79 -164 -224 -238 0
-79 -164 -227 -237 0
-79 -165 -205 -272 0
-79 -165 -208 -267 0
-79 -165 -216 -247 0
-79 -165 -217 -244 0
-79 -165 -219 -242 0
-79 -165 -221 -240 0
-79 -165 -223 -238 0
-79 -166 -205 -271 0
-79 -166 -206 -268 0
-79 -166 -207 -267 0
-79 -166 -217 -243 0
-79 -166 -218 -242 0
-80 -131 -257 -286 0
-80 -131 -259 -284 0
-80 -131 -260 -283 0
-80 -131 -262 -281 0
-80 -131 -263 -280 0
-80 -131 -265 -278 0
-80 -132 -242 -286 0
-80 -132 -244 -284 0
-80 -132 -245 -283 0
-80 -132 -246 -282 0
-80 -132 -247 -281 0
-80 -132 -248 -280 0
-80 -132 -249 -279 0
-80 -132 -250 -278 0
-80 -132 -251 -277 0
-80 -135 -234 -282 0
-80 -135 -235 -281 0
-80 -135 -236 -280 0
-80 -135 -244 -265 0
-80 -135 -245 -264 0
-80 -135 -249 -260 0
-80 -135 -250 -259 0
-80 -135 -251 -258 0
-80 -136 -235 -279 0
-80 -136 -236 -278 0
-80 -136 -244 -263 0
-80 -136 -245 -262 0
-80 -136 -247 -260 0
-80 -136 -248 -259 0
-80 -137 -233 -281 0
-80 -137 -234 -279 0
-80 -137 -236 -277 0
-80 -137 -242 -265 0
-80 -137 -243 -263 0
-80 -137 -245 -261 0
-80 -137 -246 -260 0
-80 -137 -250 -257 0
-80 -138 -234 -278 0
-80 -138 -242 -264 0
-80 -138 -243 -262 0
-80 -138 -244 -261 0
-80 -139 -221 -286 0
-80 -139 -222 -285 0
-80 -139 -223 -284 0
-80 -139 -224 -283 0
-80 -139 -225 -282 0
-80 -139 -226 -281 0
-80 -139 -227 -280 0
-80 -139 -228 -279 0
-80 -139 -229 -278 0
-80 -139 -230 -277 0
-80 -142 -215 -280 0
-80 -142 -223 -265 0
-80 -142 -229 -259 0
-80 -143 -221 -266 0
-80 -143 -223 -263 0
-80 -143 -224 -262 0
-80 -143 -226 -260 0
-80 -144 -221 -265 0
-80 -144 -222 -263 0
-80 -144 -224 -261 0
-80 -144 -225 -260 0
-80 -144 -227 -258 0
-80 -145 -214 -277 0
-80 -145 -221 -264 0
-80 -145 -222 -262 0
-80 -145 -223 -261 0
-80 -145 -225 -259 0
-80 -148 -208 -281 0
-80 -148 -222 -251 0
-80 -148 -223 -250 0
-80 -148 -228 -245 0
-80 -148 -230 -243 0
-80 -149 -209 -278 0
-80 -149 -221 -251 0
-80 -149 -223 -248 0
-80 -149 -226 -245 0
-80 -149 -227 -244 0
-80 -149 -230 -242 0
-80 -150 -206 -281 0
-80 -150 -221 -250 0
-80 -150 -222 -248 0
-80 -150 -224 -246 0
-80 -150 -225 -245 0
-80 -151 -221 -249 0
-80 -151 -222 -247 0
-80 -151 -223 -246 0
-80 -151 -225 -244 0
-80 -151 -226 -243 0
-80 -161 -205 -266 0
-80 -161 -208 -260 0
-80 -161 -211 -251 0
-80 -161 -214 -245 0
-80 -161 -223 -236 0
-80 -162 -207 -260 0
-80 -162 -209 -258 0
-80 -162 -211 -250 0
-80 -162 -213 -245 0
-80 -162 -215 -243 0
-80 -162 -222 -236 0
-80 -162 -224 -234 0
-80 -162 -229 -232 0
-80 -163 -207 -259 0
-80 -163 -208 -258 0
-80 -163 -211 -249 0
-80 -163 -213 -244 0
-80 -163 -222 -235 0
-80 -163 -223 -234 0
-80 -164 -205 -263 0
-80 -164 -212 -245 0
-80 -164 -221 -236 0
-80 -164 -224 -233 0
-80 -164 -227 -232 0
-80 -165 -206 -259 0
-80 -165 -212 -244 0
-80 -165 -226 -232 0
-80 -166 -207 -257 0
-80 -166 -211 -246 0
-80 -166 -212 -243 0
-80 -166 -221 -234 0
-80 -166 -222 -233 0
-80 -166 -225 -232 0
-86 -126 -253 -286 0
-86 -126 -254 -285 0
-86 -126 -255 -284 0
-86 -126 -256 -283 0
-86 -126 -261 -276 0
-86 -126 -262 -275 0
-86 -126 -263 -274 0
-86 -126 -264 -273 0
-86 -126 -265 -272 0
-86 -126 -266 -271 0
-86 -146 -194 -285 0
-86 -146 -196 -283 0
-86 -146 -197 -282 0
-86 -146 -198 -281 0
-86 -146 -200 -279 0
-86 -146 -201 -278 0
-86 -146 -202 -277 0
-86 -148 -188 -286 0
-86 -148 -191 -281 0
-86 -148 -194 -276 0
-86 -148 -195 -275 0
-86 -148 -196 -274 0
-86 -148 -200 -270 0
-86 -149 -188 -285 0
-86 -149 -192 -278 0
-86 -149 -195 -273 0
-86 -149 -196 -272 0
-86 -150 -188 -284 0
-86 -151 -188 -283 0
-86 -151 -195 -271 0
-86 -153 -183 -286 0
-86 -153 -186 -281 0
-86 -153 -195 -265 0
-86 -153 -196 -264 0
-86 -153 -201 -259 0
-86 -154 -183 -285 0
-86 -154 -187 -278 0
-86 -154 -195 -263 0
-86 -154 -196 -262 0
-86 -154 -198 -260 0
-86 -155 -183 -284 0
-86 -155 -193 -265 0
-86 -155 -194 -263 0
-86 -156 -183 -283 0
-86 -156 -194 -262 0
-86 -156 -195 -261 0
-86 -156 -200 -257 0
-86 -161 -183 -276 0
-86 -161 -186 -270 0
-86 -161 -187 -269 0
-86 -161 -188 -266 0
-86 -161 -191 -260 0
-86 -161 -196 -255 0
-86 -162 -183 -275 0
-86 -162 -187 -268 0
-86 -162 -188 -265 0
-86 -162 -190 -260 0
-86 -162 -196 -254 0
-86 -163 -183 -274 0
-86 -163 -185 -269 0
-86 -163 -188 -264 0
-86 -163 -194 -255 0
-86 -163 -195 -254 0
-86 -164 -183 -273 0
-86 -164 -188 -263 0
-86 -164 -192 -257 0
-86 -164 -196 -253 0
-86 -165 -183 -272 0
-86 -165 -188 -262 0
-86 -165 -189 -259 0
-86 -165 -193 -255 0
-86 -165 -195 -253 0
-86 -166 -183 -271 0
-86 -166 -184 -268 0
-86 -166 -185 -267 0
-86 -166 -188 -261 0
-86 -166 -193 -254 0
-86 -166 -194 -253 0
-87 -126 -238 -286 0
-87 -126 -239 -285 0
-87 -126 -240 -284 0
-87 -126 -241 -283 0
-87 -126 -246 -276 0
-87 -126 -247 -275 0
-87 -126 -248 -274 0
-87 -126 -249 -273 0
-87 -126 -250 -272 0
-87 -126 -251 -271 0
-87 -140 -193 -286 0
-87 -140 -195 -284 0
-87 -140 -196 -283 0
-87 -140 -198 -281 0
-87 -140 -199 -280 0
-87 -142 -188 -286 0
-87 -142 -194 -276 0
-87 -142 -195 -275 0
-87 -142 -196 -274 0
-87 -142 -200 -270 0
-87 -142 -202 -268 0
-87 -143 -188 -285 0
-87 -143 -192 -278 0
-87 -143 -193 -276 0
-87 -143 -195 -273 0
-87 -143 -196 -272 0
-87 -143 -202 -267 0
-87 -144 -188 -284 0
-87 -144 -193 -275 0
-87 -144 -196 -271 0
-87 -145 -188 -283 0
-87 -145 -193 -274 0
-87 -145 -194 -272 0
-87 -145 -195 -271 0
-87 -153 -177 -286 0
-87 -153 -194 -251 0
-87 -153 -195 -250 0
-87 -153 -196 -249 0
-87 -154 -177 -285 0
-87 -154 -181 -278 0
-87 -154 -193 -251 0
-87 -154 -195 -248 0
-87 -154 -196 -247 0
-87 -155 -177 -284 0
-87 -155 -178 -281 0
-87 -155 -193 -250 0
-87 -155 -196 -246 0
-87 -156 -177 -283 0
-87 -156 -195 -246 0
-87 -156 -197 -244 0
-87 -156 -198 -243 0
-87 -161 -177 -276 0
-87 -161 -180 -270 0
-87 -161 -181 -269 0
-87 -161 -188 -251 0
-87 -161 -191 -245 0
-87 -161 -195 -241 0
-87 -161 -196 -240 0
-87 -162 -177 -275 0
-87 -162 -188 -250 0
-87 -162 -194 -241 0
-87 -162 -196 -239 0
-87 -163 -177 -274 0
-87 -163 -179 -269 0
-87 -163 -180 -268 0
-87 -163 -188 -249 0
-87 -163 -190 -244 0
-87 -163 -191 -243 0
-87 -163 -194 -240 0
-87 -163 -195 -239 0
-87 -163 -200 -237 0
-87 -164 -176 -279 0
-87 -164 -177 -273 0
-87 -164 -178 -270 0
-87 -164 -188 -248 0
-87 -164 -192 -242 0
-87 -164 -193 -241 0
-87 -164 -196 -238 0
-87 -164 -199 -237 0
-87 -165 -177 -272 0
-87 -165 -178 -269 0
-87 -165 -180 -267 0
-87 -165 -188 -247 0
-87 -165 -191 -242 0
-87 -165 -193 -240 0
-87 -165 -195 -238 0
-87 -166 -177 -271 0
-87 -166 -179 -267 0
-87 -166 -188 -246 0
-87 -166 -189 -243 0
-87 -166 -193 -239 0
-87 -166 -194 -238 0
-88 -126 -233 -286 0
-88 -126 -234 -285 0
-88 -126 -235 -284 0
-88 -126 -236 -283 0
-88 -126 -246 -266 0
-88 -126 -247 -265 0
-88 -126 -248 -264 0
-88 -126 -249 -263 0
-88 -126 -250 -262 0
-88 -126 -251 -261 0
-88 -139 -195 -284 0
-88 -139 -196 -283 0
-88 -139 -200 -279 0
-88 -139 -201 -278 0
-88 -139 -202 -277 0
-88 -142 -183 -286 0
-88 -142 -186 -281 0
-88 -142 -195 -265 0
-88 -142 -196 -264 0
-88 -143 -183 -285 0
-88 -143 -187 -278 0
-88 -143 -193 -266 0
-88 -143 -195 -263 0
-88 -143 -196 -262 0
-88 -143 -198 -260 0
-88 -144 -183 -284 0
-88 -144 -196 -261 0
-88 -144 -197 -260 0
-88 -144 -201 -257 0
-88 -145 -183 -283 0
-88 -145 -185 -278 0
-88 -148 -177 -286 0
-88 -148 -181 -280 0
-88 -148 -195 -250 0
-88 -148 -196 -249 0
-88 -148 -200 -245 0
-88 -148 -201 -244 0
-88 -148 -202 -243 0
-88 -149 -177 -285 0
-88 -149 -178 -282 0
-88 -149 -180 -279 0
-88 -149 -181 -278 0
-88 -149 -193 -251 0
-88 -149 -195 -248 0
-88 -149 -196 -247 0
-88 -150 -177 -284 0
-88 -150 -181 -277 0
-88 -150 -193 -250 0
-88 -150 -194 -248 0
-88 -150 -196 -246 0
-88 -150 -197 -245 0
-88 -151 -177 -283 0
-88 -151 -178 -280 0
-88 -151 -193 -249 0
-88 -151 -195 -246 0
-88 -151 -197 -244 0
-88 -161 -177 -266 0
-88 -161 -180 -260 0
-88 -161 -181 -259 0
-88 -161 -183 -251 0
-88 -161 -186 -245 0
-88 -161 -187 -244 0
-88 -161 -195 -236 0
-88 -161 -196 -235 0
-88 -161 -202 -232 0
-88 -162 -177 -265 0
-88 -162 -179 -260 0
-88 -162 -181 -258 0
-88 -162 -183 -250 0
-88 -162 -185 -245 0
-88 -162 -194 -236 0
-88 -162 -196 -234 0
-88 -163 -177 -264 0
-88 -163 -179 -259 0
-88 -163 -183 -249 0
-88 -163 -185 -244 0
-88 -163 -186 -243 0
-88 -163 -194 -235 0
-88 -163 -195 -234 0
-88 -163 -200 -232 0
-88 -164 -177 -263 0
-88 -164 -178 -260 0
-88 -164 -181 -257 0
-88 -164 -183 -248 0
-88 -164 -193 -236 0
-88 -164 -196 -233 0
-88 -165 -177 -262 0
-88 -165 -178 -259 0
-88 -165 -180 -257 0
-88 -165 -183 -247 0
-88 -165 -184 -244 0
-88 -165 -186 -242 0
-88 -165 -193 -235 0
-88 -165 -195 -233 0
-88 -165 -198 -232 0
-88 -166 -177 -261 0
-88 -166 -179 -257 0
-88 -166 -183 -246 0
-88 -166 -184 -243 0
-88 -166 -185 -242 0
-88 -166 -193 -234 0
-88 -166 -194 -233 0
-94 -126 -217 -286 0
-94 -126 -218 -285 0
-94 -126 -219 -284 0
-94 -126 -220 -283 0
-94 -126 -225 -276 0
-94 -126 -226 -275 0
-94 -126 -227 -274 0
-94 -126 -228 -273 0
-94 -126 -229 -272 0
-94 -126 -230 -271 0
-94 -133 -193 -286 0
-94 -133 -194 -285 0
-94 -133 -195 -284 0
-94 -133 -196 -283 0
-94 -133 -197 -282 0
-94 -133 -198 -281 0
-94 -133 -200 -279 0
-94 -133 -201 -278 0
-94 -135 -188 -286 0
-94 -135 -190 -282 0
-94 -135 -192 -280 0
-94 -135 -194 -276 0
-94 -135 -195 -275 0
-94 -135 -196 -274 0
-94 -136 -188 -285 0
-94 -136 -189 -282 0
-94 -136 -192 -278 0
-94 -136 -195 -273 0
-94 -136 -196 -272 0
-94 -137 -188 -284 0
-94 -137 -192 -277 0
-94 -137 -196 -271 0
-94 -138 -188 -283 0
-94 -138 -193 -274 0
-94 -138 -194 -272 0
-94 -138 -195 -271 0
-94 -153 -170 -286 0
-94 -153 -172 -282 0
-94 -153 -173 -281 0
-94 -153 -174 -280 0
-94 -153 -195 -229 0
-94 -153 -196 -228 0
-94 -154 -170 -285 0
-94 -154 -171 -282 0
-94 -154 -193 -230 0
-94 -154 -195 -227 0
-94 -154 -196 -226 0
-94 -155 -170 -284 0
-94 -155 -171 -281 0
-94 -155 -172 -279 0
-94 -155 -193 -229 0
-94 -155 -196 -225 0
-94 -155 -197 -224 0
-94 -156 -170 -283 0
-94 -156 -171 -280 0
-94 -156 -172 -278 0
-94 -156 -193 -228 0
-94 -156 -197 -223 0
-94 -156 -200 -221 0
-94 -161 -170 -276 0
-94 -161 -173 -270 0
-94 -161 -174 -269 0
-94 -161 -188 -230 0
-94 -161 -191 -224 0
-94 -161 -195 -220 0
-94 -161 -196 -219 0
-94 -161 -202 -216 0
-94 -162 -170 -275 0
-94 -162 -172 -270 0
-94 -162 -174 -268 0
-94 -162 -188 -229 0
-94 -162 -192 -222 0
-94 -162 -194 -220 0
-94 -162 -196 -218 0
-94 -162 -201 -216 0
-94 -163 -170 -274 0
-94 -163 -173 -268 0
-94 -163 -188 -228 0
-94 -163 -191 -222 0
-94 -163 -194 -219 0
-94 -163 -195 -218 0
-94 -164 -170 -273 0
-94 -164 -171 -270 0
-94 -164 -188 -227 0
-94 -164 -189 -224 0
-94 -164 -192 -221 0
-94 -164 -193 -220 0
-94 -164 -196 -217 0
-94 -165 -169 -278 0
-94 -165 -170 -272 0
-94 -165 -171 -269 0
-94 -165 -173 -267 0
-94 -165 -188 -226 0
-94 -165 -189 -223 0
-94 -165 -191 -221 0
-94 -165 -193 -219 0
-94 -165 -195 -217 0
-94 -165 -198 -216 0
-94 -166 -170 -271 0
-94 -166 -171 -268 0
-94 -166 -172 -267 0
-94 -166 -188 -225 0
-94 -166 -189 -222 0
-94 -166 -190 -221 0
-94 -166 -193 -218 0
-94 -166 -194 -217 0
-95 -126 -212 -286 0
-95 -126 -213 -285 0
-95 -126 -214 -284 0
-95 -126 -215 -283 0
-95 -126 -225 -266 0
-95 -126 -226 -265 0
-95 -126 -227 -264 0
-95 -126 -228 -263 0
-95 -126 -229 -262 0
-95 -126 -230 -261 0
-95 -132 -195 -284 0
-95 -132 -196 -283 0
-95 -132 -198 -281 0
-95 -132 -200 -279 0
-95 -132 -201 -278 0
-95 -135 -183 -286 0
-95 -135 -185 -282 0
-95 -135 -195 -265 0
-95 -135 -196 -264 0
-95 -135 -200 -260 0
-95 -136 -183 -285 0
-95 -136 -186 -279 0
-95 -136 -187 -278 0
-95 -136 -193 -266 0
-95 -136 -195 -263 0
-95 -136 -196 -262 0
-95 -136 -202 -257 0
-95 -137 -183 -284 0
-95 -137 -184 -281 0
-95 -137 -193 -265 0
-95 -137 -194 -263 0
-95 -137 -196 -261 0
-95 -137 -197 -260 0
-95 -138 -183 -283 0
-95 -138 -186 -277 0
-95 -138 -193 -264 0
-95 -138 -194 -262 0
-95 -138 -195 -261 0
-95 -148 -170 -286 0
-95 -148 -194 -230 0
-95 -148 -195 -229 0
-95 -148 -196 -228 0
-95 -149 -170 -285 0
-95 -149 -171 -282 0
-95 -149 -174 -278 0
-95 -149 -193 -230 0
-95 -149 -196 -226 0
-95 -150 -170 -284 0
-95 -150 -171 -281 0
-95 -150 -172 -279 0
-95 -150 -193 -229 0
-95 -150 -196 -225 0
-95 -150 -197 -224 0
-95 -150 -199 -222 0
-95 -151 -170 -283 0
-95 -151 -171 -280 0
-95 -151 -173 -277 0
-95 -151 -193 -228 0
-95 -151 -195 -225 0
-95 -161 -170 -266 0
-95 -161 -173 -260 0
-95 -161 -183 -230 0
-95 -161 -195 -215 0
-95 -161 -196 -214 0
-95 -162 -170 -265 0
-95 -162 -172 -260 0
-95 -162 -174 -258 0
-95 -162 -183 -229 0
-95 -162 -185 -224 0
-95 -162 -187 -222 0
-95 -162 -194 -215 0
-95 -162 -196 -213 0
-95 -163 -170 -264 0
-95 -163 -172 -259 0
-95 -163 -183 -228 0
-95 -163 -185 -223 0
-95 -163 -194 -214 0
-95 -163 -195 -213 0
-95 -164 -170 -263 0
-95 -164 -171 -260 0
-95 -164 -183 -227 0
-95 -164 -184 -224 0
-95 -164 -187 -221 0
-95 -164 -193 -215 0
-95 -164 -196 -212 0
-95 -165 -170 -262 0
-95 -165 -171 -259 0
-95 -165 -173 -257 0
-95 -165 -183 -226 0
-95 -165 -184 -223 0
-95 -165 -186 -221 0
-95 -165 -193 -214 0
-95 -165 -195 -212 0
-95 -165 -198 -211 0
-95 -166 -170 -261 0
-95 -166 -171 -258 0
-95 -166 -183 -225 0
-95 -166 -184 -222 0
-95 -166 -185 -221 0
-95 -166 -193 -213 0
-95 -166 -194 -212 0
-101 -126 -206 -286 0
-101 -126 -207 -285 0
-101 -126 -208 -284 0
-101 -126 -209 -283 0
-101 -126 -225 -251 0
-101 -126 -226 -250 0
-101 -126 -227 -249 0
-101 -126 -228 -248 0
-101 -126 -229 -247 0
-101 -126 -230 -246 0
-101 -131 -193 -286 0
-101 -131 -195 -284 0
-101 -131 -196 -283 0
-101 -131 -197 -282 0
-101 -131 -198 -281 0
-101 -131 -199 -280 0
-101 -131 -202 -277 0
-101 -135 -177 -286 0
-101 -135 -179 -282 0
-101 -135 -194 -251 0
-101 -135 -195 -250 0
-101 -135 -196 -249 0
-101 -135 -201 -244 0
-101 -136 -177 -285 0
-101 -136 -180 -279 0
-101 -136 -181 -278 0
-101 -136 -193 -251 0
-101 -136 -195 -248 0
-101 -136 -196 -247 0
-101 -137 -177 -284 0
-101 -137 -178 -281 0
-101 -137 -193 -250 0
-101 -137 -201 -242 0
-101 -138 -177 -283 0
-101 -138 -198 -243 0
-101 -142 -170 -286 0
-101 -142 -173 -281 0
-101 -142 -196 -228 0
-101 -143 -170 -285 0
-101 -143 -171 -282 0
-101 -143 -174 -278 0
-101 -143 -193 -230 0
-101 -143 -196 -226 0
-101 -143 -202 -221 0
-101 -144 -170 -284 0
-101 -144 -193 -229 0
-101 -144 -194 -227 0
-101 -144 -196 -225 0
-101 -144 -197 -224 0
-101 -145 -170 -283 0
-101 -145 -172 -278 0
-101 -145 -193 -228 0
-101 -161 -170 -251 0
-101 -161 -173 -245 0
-101 -161 -174 -244 0
-101 -161 -177 -230 0
-101 -161 -195 -209 0
-101 -161 -196 -208 0
-101 -162 -170 -250 0
-101 -162 -174 -243 0
-101 -162 -177 -229 0
-101 -162 -179 -224 0
-101 -162 -181 -222 0
-101 -162 -194 -209 0
-101 -162 -196 -207 0
-101 -163 -170 -249 0
-101 -163 -172 -244 0
-101 -163 -173 -243 0
-101 -163 -177 -228 0
-101 -163 -179 -223 0
-101 -163 -180 -222 0
-101 -163 -194 -208 0
-101 -163 -195 -207 0
-101 -164 -170 -248 0
-101 -164 -174 -242 0
-101 -164 -177 -227 0
-101 -164 -193 -209 0
-101 -164 -196 -206 0
-101 -165 -170 -247 0
-101 -165 -171 -244 0
-101 -165 -173 -242 0
-101 -165 -177 -226 0
-101 -165 -178 -223 0
-101 -165 -180 -221 0
-101 -165 -193 -208 0
-101 -165 -195 -206 0
-101 -165 -198 -205 0
-101 -166 -170 -246 0
-101 -166 -177 -225 0
-101 -166 -178 -222 0
-101 -166 -179 -221 0
-101 -166 -193 -207 0
-101 -166 -194 -206 0
-112 -131 -182 -286 0
-112 -131 -185 -276 0
-112 -131 -186 -275 0
-112 -131 -187 -274 0
-112 -131 -190 -266 0
-112 -131 -191 -265 0
-112 -131 -192 -264 0
-112 -131 -201 -255 0
-112 -131 -202 -254 0
-112 -132 -176 -286 0
-112 -132 -179 -276 0
-112 -132 -181 -274 0
-112 -132 -190 -251 0
-112 -132 -191 -250 0
-112 -132 -192 -249 0
-112 -132 -201 -240 0
-112 -133 -175 -286 0
-112 -133 -181 -264 0
-112 -133 -185 -251 0
-112 -133 -186 -250 0
-112 -133 -187 -249 0
-112 -133 -201 -235 0
-112 -136 -176 -266 0
-112 -136 -181 -255 0
-112 -136 -182 -251 0
-112 -136 -186 -241 0
-112 -136 -187 -240 0
-112 -136 -191 -236 0
-112 -136 -192 -235 0
-112 -137 -176 -265 0
-112 -137 -179 -256 0
-112 -137 -181 -254 0
-112 -137 -182 -250 0
-112 -137 -187 -239 0
-112 -137 -192 -234 0
-112 -138 -176 -264 0
-112 -138 -182 -249 0
-112 -138 -190 -235 0
-112 -139 -169 -286 0
-112 -139 -190 -230 0
-112 -139 -191 -229 0
-112 -140 -168 -286 0
-112 -140 -173 -265 0
-112 -140 -186 -229 0
-112 -140 -202 -213 0
-112 -143 -173 -256 0
-112 -143 -174 -255 0
-112 -143 -182 -230 0
-112 -143 -186 -220 0
-112 -143 -187 -219 0
-112 -143 -191 -215 0
-112 -144 -168 -275 0
-112 -144 -169 -265 0
-112 -144 -182 -229 0
-112 -144 -185 -220 0
-112 -144 -187 -218 0
-112 -144 -192 -213 0
-112 -145 -172 -255 0
-112 -145 -182 -228 0
-112 -145 -185 -219 0
-112 -145 -186 -218 0
-112 -145 -191 -213 0
-112 -146 -167 -286 0
-112 -146 -172 -251 0
-112 -146 -173 -250 0
-112 -146 -174 -249 0
-112 -146 -180 -229 0
-112 -146 -181 -228 0
-112 -146 -202 -207 0
-112 -149 -173 -241 0
-112 -149 -174 -240 0
-112 -149 -181 -219 0
-112 -149 -191 -209 0
-112 -150 -167 -275 0
-112 -150 -172 -241 0
-112 -150 -174 -239 0
-112 -150 -179 -220 0
-112 -150 -181 -218 0
-112 -151 -167 -274 0
-112 -151 -172 -240 0
-112 -151 -173 -239 0
-112 -151 -176 -228 0
-112 -151 -179 -219 0
-112 -151 -180 -218 0
-112 -154 -167 -266 0
-112 -154 -173 -236 0
-112 -154 -175 -230 0
-112 -154 -181 -214 0
-112 -155 -168 -250 0
-112 -155 -172 -236 0
-112 -155 -174 -234 0
-112 -155 -179 -215 0
-112 -155 -181 -213 0
-112 -155 -187 -207 0
-112 -156 -167 -264 0
-112 -156 -172 -235 0
-112 -156 -173 -234 0
-112 -164 -167 -256 0
-112 -164 -169 -236 0
-112 -164 -176 -215 0
-112 -164 -182 -209 0
-112 -165 -167 -255 0
-112 -165 -176 -214 0
-112 -166 -176 -213 0
-113 -131 -182 -285 0
-113 -131 -189 -266 0
-113 -131 -192 -262 0
-113 -131 -198 -256 0
-113 -131 -199 -255 0
-113 -131 -202 -253 0
-113 -132 -176 -285 0
-113 -132 -180 -273 0
-113 -132 -189 -251 0
-113 -133 -180 -263 0
-113 -133 -181 -262 0
-113 -133 -184 -251 0
-113 -133 -186 -248 0
-113 -133 -187 -247 0
-113 -133 -198 -236 0
-113 -133 -202 -233 0
-113 -135 -175 -276 0
-113 -135 -176 -266 0
-113 -135 -182 -251 0
-113 -135 -186 -241 0
-113 -135 -187 -240 0
-113 -137 -175 -273 0
-113 -137 -181 -253 0
-113 -137 -182 -248 0
-113 -137 -187 -238 0
-113 -138 -178 -255 0
-113 -138 -182 -247 0
-113 -138 -186 -238 0
-113 -138 -191 -233 0
-113 -139 -189 -230 0
-113 -139 -202 -217 0
-113 -140 -173 -263 0
-113 -140 -174 -262 0
-113 -142 -174 -255 0
-113 -142 -182 -230 0
-113 -144 -169 -263 0
-113 -144 -182 -227 0
-113 -144 -184 -220 0
-113 -144 -187 -217 0
-113 -144 -189 -215 0
-113 -145 -168 -272 0
-113 -145 -169 -262 0
-113 -145 -182 -226 0
-113 -145 -191 -212 0
-113 -146 -167 -285 0
-113 -146 -171 -251 0
-113 -146 -173 -248 0
-113 -146 -178 -230 0
-113 -148 -167 -276 0
-113 -148 -173 -241 0
-113 -148 -176 -230 0
-113 -148 -180 -220 0
-113 -148 -181 -219 0
-113 -150 -169 -248 0
-113 -150 -171 -241 0
-113 -150 -174 -238 0
-113 -150 -176 -227 0
-113 -151 -169 -247 0
-113 -151 -171 -240 0
-113 -151 -173 -238 0
-113 -151 -178 -219 0
-113 -153 -167 -266 0
-113 -153 -174 -235 0
-113 -153 -175 -230 0
-113 -155 -168 -248 0
-113 -155 -175 -227 0
-113 -156 -167 -262 0
-113 -156 -171 -235 0
-113 -156 -173 -233 0
-113 -156 -180 -212 0
-113 -162 -175 -220 0
-113 -162 -176 -215 0
-113 -163 -169 -235 0
-113 -163 -175 -219 0
-113 -166 -168 -238 0
-113 -166 -169 -233 0
-113 -166 -182 -206 0
-114 -131 -182 -284 0
-114 -131 -184 -275 0
-114 -131 -189 -265 0
-114 -131 -190 -263 0
-114 -131 -199 -254 0
-114 -132 -176 -284 0
-114 -132 -189 -250 0
-114 -133 -175 -284 0
-114 -133 -181 -261 0
-114 -133 -184 -250 0
-114 -133 -187 -246 0
-114 -135 -179 -256 0
-114 -135 -182 -250 0
-114 -135 -185 -241 0
-114 -135 -187 -239 0
-114 -135 -192 -234 0
-114 -136 -175 -273 0
-114 -136 -181 -253 0
-114 -136 -192 -233 0
-114 -138 -178 -254 0
-114 -138 -182 -246 0
-114 -138 -184 -239 0
-114 -138 -189 -234 0
-114 -139 -169 -284 0
-114 -139 -189 -229 0
-114 -140 -168 -284 0
-114 -140 -174 -261 0
-114 -140 -197 -215 0
-114 -142 -172 -256 0
-114 -142 -174 -254 0
-114 -142 -182 -229 0
-114 -143 -171 -256 0
-114 -143 -174 -253 0
-114 -143 -182 -227 0
-114 -143 -189 -215 0
-114 -143 -192 -212 0
-114 -145 -169 -261 0
-114 -145 -171 -254 0
-114 -145 -182 -225 0
-114 -145 -184 -218 0
-114 -145 -190 -212 0
-114 -146 -167 -284 0
-114 -146 -171 -250 0
-114 -146 -174 -246 0
-114 -146 -178 -229 0
-114 -146 -181 -225 0
-114 -148 -174 -239 0
-114 -148 -176 -229 0
-114 -148 -181 -218 0
-114 -148 -192 -207 0
-114 -149 -167 -273 0
-114 -149 -176 -227 0
-114 -151 -167 -271 0
-114 -151 -169 -246 0
-114 -151 -171 -239 0
-114 -151 -172 -238 0
-114 -151 -178 -218 0
-114 -151 -190 -206 0
-114 -153 -168 -250 0
-114 -153 -172 -236 0
-114 -153 -175 -229 0
-114 -153 -179 -215 0
-114 -153 -187 -207 0
-114 -154 -175 -227 0
-114 -156 -167 -261 0
-114 -156 -171 -234 0
-114 -156 -172 -233 0
-114 -156 -178 -213 0
-114 -156 -179 -212 0
-114 -161 -167 -256 0
-114 -161 -168 -241 0
-114 -163 -169 -234 0
-114 -163 -175 -218 0
-114 -163 -176 -213 0
-114 -165 -169 -233 0
-114 -165 -175 -217 0
-115 -131 -182 -283 0
-115 -131 -185 -272 0
-115 -131 -186 -271 0
-115 -131 -190 -262 0
-115 -131 -200 -253 0
-115 -132 -176 -283 0
-115 -132 -189 -249 0
-115 -132 -190 -247 0
-115 -132 -200 -238 0
-115 -133 -175 -283 0
-115 -133 -180 -261 0
-115 -133 -184 -249 0
-115 -133 -186 -246 0
-115 -133 -200 -233 0
-115 -135 -175 -274 0
-115 -135 -176 -264 0
-115 -135 -182 -249 0
-115 -135 -185 -240 0
-115 -135 -190 -235 0
-115 -136 -175 -272 0
-115 -136 -176 -262 0
-115 -136 -180 -253 0
-115 -136 -182 -247 0
-115 -136 -186 -238 0
-115 -137 -175 -271 0
-115 -137 -182 -246 0
-115 -137 -185 -238 0
-115 -137 -189 -234 0
-115 -137 -190 -233 0
-115 -139 -169 -283 0
-115 -139 -172 -272 0
-115 -139 -173 -271 0
-115 -139 -191 -225 0
-115 -139 -198 -218 0
-115 -139 -200 -217 0
-115 -140 -168 -283 0
-115 -140 -171 -264 0
-115 -140 -184 -228 0
-115 -140 -185 -226 0
-115 -142 -173 -254 0
-115 -142 -182 -228 0
-115 -142 -190 -214 0
-115 -143 -169 -262 0
-115 -143 -171 -255 0
-115 -143 -173 -253 0
-115 -143 -182 -226 0
-115 -143 -186 -217 0
-115 -143 -189 -214 0
-115 -143 -191 -212 0
-115 -144 -169 -261 0
-115 -144 -171 -254 0
-115 -144 -182 -225 0
-115 -144 -184 -218 0
-115 -144 -189 -213 0
-115 -144 -190 -212 0
-115 -146 -167 -283 0
-115 -146 -172 -247 0
-115 -146 -173 -246 0
-115 -148 -167 -274 0
-115 -148 -169 -249 0
-115 -148 -172 -240 0
-115 -148 -173 -239 0
-115 -148 -176 -228 0
-115 -148 -180 -218 0
-115 -148 -191 -207 0
-115 -149 -167 -272 0
-115 -149 -171 -240 0
-115 -149 -178 -219 0
-115 -149 -180 -217 0
-115 -150 -167 -271 0
-115 -150 -169 -246 0
-115 -150 -171 -239 0
-115 -150 -172 -238 0
-115 -150 -179 -217 0
-115 -150 -189 -207 0
-115 -150 -190 -206 0
-115 -153 -173 -234 0
-115 -153 -179 -214 0
-115 -153 -180 -213 0
-115 -153 -186 -207 0
-115 -154 -168 -247 0
-115 -154 -171 -235 0
-115 -154 -180 -212 0
-115 -155 -171 -234 0
-115 -155 -172 -233 0
-115 -155 -175 -225 0
-115 -155 -178 -213 0
-115 -162 -167 -254 0
-115 -162 -176 -213 0
-115 -164 -167 -253 0
-115 -164 -168 -238 0
-115 -164 -169 -233 0
-115 -164 -175 -217 0
-116 -126 -208 -256 0
-116 -126 -209 -255 0
-116 -126 -214 -241 0
-116 -126 -215 -240 0
-116 -126 -219 -236 0
-116 -126 -220 -235 0
-116 -131 -182 -282 0
-116 -131 -183 -276 0
-116 -131 -187 -269 0
-116 -131 -188 -266 0
-116 -131 -191 -260 0
-116 -131 -202 -252 0
-116 -132 -177 -276 0
-116 -132 -188 -251 0
-116 -132 -202 -237 0
-116 -133 -177 -266 0
-116 -133 -180 -260 0
-116 -133 -183 -251 0
-116 -133 -187 -244 0
-116 -137 -175 -270 0
-116 -137 -176 -260 0
-116 -137 -177 -256 0
-116 -137 -182 -245 0
-116 -137 -183 -241 0
-116 -137 -188 -236 0
-116 -138 -176 -259 0
-116 -138 -177 -255 0
-116 -138 -182 -244 0
-116 -138 -183 -240 0
-116 -138 -188 -235 0
-116 -139 -169 -282 0
-116 -139 -170 -276 0
-116 -139 -174 -269 0
-116 -139 -188 -230 0
-116 -139 -192 -223 0
-116 -139 -195 -220 0
-116 -139 -202 -216 0
-116 -140 -168 -282 0
-116 -140 -170 -266 0
-116 -140 -173 -260 0
-116 -140 -183 -230 0
-116 -140 -186 -224 0
-116 -140 -187 -223 0
-116 -144 -168 -270 0
-116 -144 -169 -260 0
-116 -144 -170 -256 0
-116 -144 -174 -252 0
-116 -144 -182 -224 0
-116 -144 -183 -220 0
-116 -144 -188 -215 0
-116 -145 -168 -269 0
-116 -145 -169 -259 0
-116 -145 -170 -255 0
-116 -145 -173 -252 0
-116 -145 -182 -223 0
-116 -145 -183 -219 0
-116 -145 -188 -214 0
-116 -145 -191 -211 0
-116 -146 -170 -251 0
-116 -146 -177 -230 0
-116 -146 -180 -224 0
-116 -150 -167 -270 0
-116 -150 -169 -245 0
-116 -150 -170 -241 0
-116 -150 -176 -224 0
-116 -150 -177 -220 0
-116 -150 -188 -209 0
-116 -151 -167 -269 0
-116 -151 -170 -240 0
-116 -151 -176 -223 0
-116 -151 -177 -219 0
-116 -151 -188 -208 0
-116 -155 -167 -260 0
-116 -155 -168 -245 0
-116 -155 -170 -236 0
-116 -155 -175 -224 0
-116 -155 -177 -215 0
-116 -155 -183 -209 0
-116 -156 -167 -259 0
-116 -156 -168 -244 0
-116 -156 -170 -235 0
-116 -156 -175 -223 0
-116 -156 -177 -214 0
-116 -166 -167 -252 0
-116 -166 -168 -237 0
-116 -166 -169 -232 0
-116 -166 -175 -216 0
-116 -166 -176 -211 0
-116 -166 -182 -205 0
-117 -126 -207 -256 0
-117 -126 -209 -254 0
-117 -126 -213 -241 0
-117 -126 -215 -239 0
-117 -126 -218 -236 0
-117 -126 -220 -234 0
-117 -131 -182 -281 0
-117 -131 -183 -275 0
-117 -131 -188 -265 0
-117 -131 -190 -260 0
-117 -131 -192 -258 0
-117 -131 -196 -254 0
-117 -132 -176 -281 0
-117 -132 -177 -275 0
-117 -132 -181 -268 0
-117 -132 -188 -250 0
-117 -132 -196 -239 0
-117 -132 -201 -237 0
-117 -133 -177 -265 0
-117 -133 -179 -260 0
-117 -133 -183 -250 0
-117 -133 -196 -234 0
-117 -133 -201 -232 0
-117 -136 -175 -270 0
-117 -136 -176 -260 0
-117 -136 -177 -256 0
-117 -136 -182 -245 0
-117 -136 -183 -241 0
-117 -136 -187 -237 0
-117 -136 -188 -236 0
-117 -136 -192 -232 0
-117 -138 -175 -268 0
-117 -138 -176 -258 0
-117 -138 -177 -254 0
-117 -138 -182 -243 0
-117 -138 -183 -239 0
-117 -138 -188 -234 0
-117 -139 -170 -275 0
-117 -139 -172 -270 0
-117 -139 -174 -268 0
-117 -139 -188 -229 0
-117 -139 -190 -224 0
-117 -139 -192 -222 0
-117 -139 -201 -216 0
-117 -140 -168 -281 0
-117 -140 -170 -265 0
-117 -140 -174 -258 0
-117 -140 -183 -229 0
-117 -140 -187 -222 0
-117 -143 -168 -270 0
-117 -143 -169 -260 0
-117 -143 -170 -256 0
-117 -143 -174 -252 0
-117 -143 -182 -224 0
-117 -143 -183 -220 0
-117 -143 -188 -215 0
-117 -143 -192 -211 0
-117 -145 -168 -268 0
-117 -145 -170 -254 0
-117 -145 -172 -252 0
-117 -145 -182 -222 0
-117 -145 -183 -218 0
-117 -145 -188 -213 0
-117 -145 -190 -211 0
-117 -146 -170 -250 0
-117 -146 -172 -245 0
-117 -146 -174 -243 0
-117 -146 -177 -229 0
-117 -146 -181 -222 0
-117 -146 -194 -209 0
-117 -146 -201 -205 0
-117 -149 -167 -270 0
-117 -149 -169 -245 0
-117 -149 -170 -241 0
-117 -149 -176 -224 0
-117 -149 -177 -220 0
-117 -149 -188 -209 0
-117 -149 -192 -205 0
-117 -151 -169 -243 0
-117 -151 -170 -239 0
-117 -151 -172 -237 0
-117 -151 -176 -222 0
-117 -151 -177 -218 0
-117 -151 -179 -216 0
-117 -151 -188 -207 0
-117 -151 -190 -205 0
-117 -154 -167 -260 0
-117 -154 -168 -245 0
-117 -154 -170 -236 0
-117 -154 -175 -224 0
-117 -154 -177 -215 0
-117 -154 -183 -209 0
-117 -154 -187 -205 0
-117 -156 -167 -258 0
-117 -156 -168 -243 0
-117 -156 -170 -234 0
-117 -156 -172 -232 0
-117 -156 -177 -213 0
-117 -156 -179 -211 0
-117 -156 -183 -207 0
-117 -156 -185 -205 0
-117 -165 -167 -252 0
-117 -165 -168 -237 0
-117 -165 -169 -232 0
-117 -165 -175 -216 0
-117 -165 -176 -211 0
-117 -165 -182 -205 0
-118 -126 -207 -255 0
-118 -126 -208 -254 0
-118 -126 -213 -240 0
-118 -126 -214 -239 0
-118 -126 -218 -235 0
-118 -126 -219 -234 0
-118 -131 -183 -274 0
-118 -131 -188 -264 0
-118 -131 -190 -259 0
-118 -131 -191 -258 0
-118 -131 -195 -254 0
-118 -131 -200 -252 0
-118 -132 -177 -274 0
-118 -132 -188 -249 0
-118 -132 -190 -244 0
-118 -132 -200 -237 0
-118 -133 -177 -264 0
-118 -133 -183 -249 0
-118 -133 -195 -234 0
-118 -136 -177 -255 0
-118 -136 -182 -244 0
-118 -136 -183 -240 0
-118 -136 -188 -235 0
-118 -137 -175 -268 0
-118 -137 -176 -258 0
-118 -137 -177 -254 0
-118 -137 -182 -243 0
-118 -137 -183 -239 0
-118 -137 -188 -234 0
-118 -139 -170 -274 0
-118 -139 -188 -228 0
-118 -139 -190 -223 0
-118 -139 -200 -216 0
-118 -140 -170 -264 0
-118 -140 -183 -228 0
-118 -140 -186 -222 0
-118 -140 -200 -211 0
-118 -143 -169 -259 0
-118 -143 -170 -255 0
-118 -143 -173 -252 0
-118 -143 -182 -223 0
-118 -143 -183 -219 0
-118 -143 -186 -216 0
-118 -143 -188 -214 0
-118 -144 -168 -268 0
-118 -144 -169 -258 0
-118 -144 -170 -254 0
-118 -144 -172 -252 0
-118 -144 -182 -222 0
-118 -144 -183 -218 0
-118 -144 -188 -213 0
-118 -144 -190 -211 0
-118 -146 -170 -249 0
-118 -146 -172 -244 0
-118 -146 -177 -228 0
-118 -146 -179 -223 0
-118 -149 -170 -240 0
-118 -149 -176 -223 0
-118 -149 -177 -219 0
-118 -149 -180 -216 0
-118 -149 -188 -208 0
-118 -150 -167 -268 0
-118 -150 -169 -243 0
-118 -150 -170 -239 0
-118 -150 -176 -222 0
-118 -150 -177 -218 0
-118 -150 -188 -207 0
-118 -154 -167 -259 0
-118 -154 -168 -244 0
-118 -154 -170 -235 0
-118 -154 -177 -214 0
-118 -154 -180 -211 0
-118 -154 -183 -208 0
-118 -155 -167 -258 0
-118 -155 -168 -243 0
-118 -155 -170 -234 0
-118 -155 -175 -222 0
-118 -155 -177 -213 0
-118 -155 -183 -207 0
-118 -164 -167 -252 0
-118 -164 -168 -237 0
-118 -164 -169 -232 0
-118 -164 -175 -216 0
-118 -164 -176 -211 0
-118 -164 -182 -205 0
-119 -126 -206 -256 0
-119 -126 -209 -253 0
-119 -126 -212 -241 0
-119 -126 -215 -238 0
-119 -126 -217 -236 0
-119 -126 -220 -233 0
-119 -131 -182 -279 0
-119 -131 -183 -273 0
-119 -131 -184 -270 0
-119 -131 -187 -267 0
-119 -131 -188 -263 0
-119 -131 -189 -260 0
-119 -131 -199 -252 0
-119 -132 -177 -273 0
-119 -132 -181 -267 0
-119 -132 -188 -248 0
-119 -132 -193 -241 0
-119 -132 -196 -238 0
-119 -133 -177 -263 0
-119 -133 -183 -248 0
-119 -135 -175 -270 0
-119 -135 -176 -260 0
-119 -135 -177 -256 0
-119 -135 -181 -252 0
-119 -135 -182 -245 0
-119 -135 -183 -241 0
-119 -135 -188 -236 0
-119 -135 -192 -232 0
-119 -138 -175 -267 0
-119 -138 -176 -257 0
-119 -138 -177 -253 0
-119 -138 -182 -242 0
-119 -138 -183 -238 0
-119 -138 -184 -237 0
-119 -138 -188 -233 0
-119 -139 -170 -273 0
-119 -139 -171 -270 0
-119 -139 -188 -227 0
-119 -139 -196 -217 0
-119 -140 -170 -263 0
-119 -140 -171 -260 0
-119 -140 -183 -227 0
-119 -140 -184 -224 0
-119 -140 -187 -221 0
-119 -140 -193 -215 0
-119 -140 -196 -212 0
-119 -140 -199 -211 0
-119 -142 -168 -270 0
-119 -142 -170 -256 0
-119 -142 -182 -224 0
-119 -142 -187 -216 0
-119 -142 -188 -215 0
-119 -145 -168 -267 0
-119 -145 -169 -257 0
-119 -145 -170 -253 0
-119 -145 -182 -221 0
-119 -145 -183 -217 0
-119 -145 -188 -212 0
-119 -146 -170 -248 0
-119 -146 -171 -245 0
-119 -146 -177 -227 0
-119 -146 -178 -224 0
-119 -146 -181 -221 0
-119 -146 -193 -209 0
-119 -148 -167 -270 0
-119 -148 -170 -241 0
-119 -148 -176 -224 0
-119 -148 -177 -220 0
-119 -148 -188 -209 0
-119 -151 -167 -267 0
-119 -151 -169 -242 0
-119 -151 -170 -238 0
-119 -151 -176 -221 0
-119 -151 -177 -217 0
-119 -151 -178 -216 0
-119 -151 -188 -206 0
-119 -153 -167 -260 0
-119 -153 -170 -236 0
-119 -153 -174 -232 0
-119 -153 -175 -224 0
-119 -153 -177 -215 0
-119 -153 -183 -209 0
-119 -153 -187 -205 0
-119 -156 -168 -242 0
-119 -156 -170 -233 0
-119 -156 -175 -221 0
-119 -156 -177 -212 0
-119 -156 -178 -211 0
-119 -156 -183 -206 0
-119 -163 -167 -252 0
-119 -163 -168 -237 0
-119 -163 -169 -232 0
-119 -163 -175 -216 0
-119 -163 -182 -205 0
-120 -126 -206 -255 0
-120 -126 -208 -253 0
-120 -126 -212 -240 0
-120 -126 -214 -238 0
-120 -126 -217 -235 0
-120 -126 -219 -233 0
-120 -131 -182 -278 0
-120 -131 -183 -272 0
-120 -131 -184 -269 0
-120 -131 -186 -267 0
-120 -131 -188 -262 0
-120 -131 -189 -259 0
-120 -131 -191 -257 0
-120 -131 -193 -255 0
-120 -131 -198 -252 0
-120 -132 -177 -272 0
-120 -132 -180 -267 0
-120 -132 -188 -247 0
-120 -132 -189 -244 0
-120 -132 -191 -242 0
-120 -132 -198 -237 0
-120 -133 -177 -262 0
-120 -133 -178 -259 0
-120 -133 -180 -257 0
-120 -133 -183 -247 0
-120 -133 -184 -244 0
-120 -133 -186 -242 0
-120 -133 -193 -235 0
-120 -133 -198 -232 0
-120 -135 -175 -269 0
-120 -135 -176 -259 0
-120 -135 -177 -255 0
-120 -135 -180 -252 0
-120 -135 -182 -244 0
-120 -135 -183 -240 0
-120 -135 -188 -235 0
-120 -135 -191 -232 0
-120 -137 -175 -267 0
-120 -137 -176 -257 0
-120 -137 -177 -253 0
-120 -137 -178 -252 0
-120 -137 -182 -242 0
-120 -137 -183 -238 0
-120 -137 -184 -237 0
-120 -137 -188 -233 0
-120 -137 -189 -232 0
-120 -139 -170 -272 0
-120 -139 -188 -226 0
-120 -139 -189 -223 0
-120 -139 -191 -221 0
-120 -139 -193 -219 0
-120 -139 -195 -217 0
-120 -139 -198 -216 0
-120 -140 -168 -278 0
-120 -140 -170 -262 0
-120 -140 -171 -259 0
-120 -140 -183 -226 0
-120 -140 -184 -223 0
-120 -140 -186 -221 0
-120 -140 -193 -214 0
-120 -140 -195 -212 0
-120 -140 -198 -211 0
-120 -142 -169 -259 0
-120 -142 -170 -255 0
-120 -142 -182 -223 0
-120 -142 -183 -219 0
-120 -142 -188 -214 0
-120 -144 -168 -267 0
-120 -144 -169 -257 0
-120 -144 -170 -253 0
-120 -144 -171 -252 0
-120 -144 -182 -221 0
-120 -144 -183 -217 0
-120 -144 -184 -216 0
-120 -144 -188 -212 0
-120 -144 -189 -211 0
-120 -146 -167 -278 0
-120 -146 -170 -247 0
-120 -146 -171 -244 0
-120 -146 -173 -242 0
-120 -146 -177 -226 0
-120 -146 -178 -223 0
-120 -146 -180 -221 0
-120 -148 -167 -269 0
-120 -148 -170 -240 0
-120 -148 -173 -237 0
-120 -148 -176 -223 0
-120 -148 -177 -219 0
-120 -148 -180 -216 0
-120 -148 -188 -208 0
-120 -148 -191 -205 0
-120 -150 -167 -267 0
-120 -150 -169 -242 0
-120 -150 -170 -238 0
-120 -150 -171 -237 0
-120 -150 -176 -221 0
-120 -150 -177 -217 0
-120 -150 -178 -216 0
-120 -150 -188 -206 0
-120 -153 -167 -259 0
-120 -153 -170 -235 0
-120 -153 -173 -232 0
-120 -153 -175 -223 0
-120 -153 -177 -214 0
-120 -153 -180 -211 0
-120 -153 -183 -208 0
-120 -155 -167 -257 0
-120 -155 -168 -242 0
-120 -155 -170 -233 0
-120 -155 -171 -232 0
-120 -155 -177 -212 0
-120 -155 -178 -211 0
-120 -155 -183 -206 0
-120 -155 -184 -205 0
-120 -162 -167 -252 0
-120 -162 -168 -237 0
-120 -162 -175 -216 0
-120 -162 -176 -211 0
-120 -162 -182 -205 0
-121 -126 -206 -254 0
-121 -126 -207 -253 0
-121 -126 -210 -246 0
-121 -126 -212 -239 0
-121 -126 -213 -238 0
-121 -126 -217 -234 0
-121 -126 -218 -233 0
-121 -131 -182 -277 0
-121 -131 -183 -271 0
-121 -131 -188 -261 0
-121 -131 -193 -254 0
-121 -132 -177 -271 0
-121 -132 -188 -246 0
-121 -133 -177 -261 0
-121 -133 -183 -246 0
-121 -133 -185 -242 0
-121 -133 -193 -234 0
-121 -135 -175 -268 0
-121 -135 -176 -258 0
-121 -135 -177 -254 0
-121 -135 -182 -243 0
-121 -135 -183 -239 0
-121 -135 -185 -237 0
-121 -135 -188 -234 0
-121 -135 -190 -232 0
-121 -136 -175 -267 0
-121 -136 -176 -257 0
-121 -136 -177 -253 0
-121 -136 -182 -242 0
-121 -136 -183 -238 0
-121 -136 -188 -233 0
-121 -139 -170 -271 0
-121 -139 -171 -268 0
-121 -139 -188 -225 0
-121 -139 -194 -217 0
-121 -139 -197 -216 0
-121 -140 -168 -277 0
-121 -140 -170 -261 0
-121 -140 -183 -225 0
-121 -140 -193 -213 0
-121 -140 -194 -212 0
-121 -142 -168 -268 0
-121 -142 -169 -258 0
-121 -142 -170 -254 0
-121 -142 -182 -222 0
-121 -142 -183 -218 0
-121 -142 -188 -213 0
-121 -143 -168 -267 0
-121 -143 -169 -257 0
-121 -143 -170 -253 0
-121 -143 -182 -221 0
-121 -143 -183 -217 0
-121 -143 -184 -216 0
-121 -143 -188 -212 0
-121 -143 -189 -211 0
-121 -146 -170 -246 0
-121 -146 -172 -242 0
-121 -146 -177 -225 0
-121 -146 -178 -222 0
-121 -146 -179 -221 0
-121 -148 -167 -268 0
-121 -148 -169 -243 0
-121 -148 -170 -239 0
-121 -148 -176 -222 0
-121 -148 -177 -218 0
-121 -148 -179 -216 0
-121 -148 -188 -207 0
-121 -148 -190 -205 0
-121 -149 -169 -242 0
-121 -149 -170 -238 0
-121 -149 -176 -221 0
-121 -149 -177 -217 0
-121 -149 -178 -216 0
-121 -149 -188 -206 0
-121 -149 -189 -205 0
-121 -153 -168 -243 0
-121 -153 -170 -234 0
-121 -153 -172 -232 0
-121 -153 -175 -222 0
-121 -153 -177 -213 0
-121 -153 -183 -207 0
-121 -153 -185 -205 0
-121 -154 -170 -233 0
-121 -154 -171 -232 0
-121 -154 -175 -221 0
-121 -154 -177 -212 0
-121 -154 -183 -206 0
-121 -161 -167 -252 0
-121 -161 -168 -237 0
-121 -161 -169 -232 0
-121 -161 -175 -216 0
-121 -161 -182 -205 0
1 0
2 0
3 0
4 0
5 0
6 0
-7 0
-8 0
-9 0
-10 0
-11 0
12 0
-13 0
-14 0
-15 0
-16 0
17 0
-18 0
-19 0
-20 0
-21 0
