p cnf 286 1723
-2 -3 -4 -22 -23 -31 0
-3 -5 -6 -32 -33 -46 0
-4 -5 -6 -39 -40 -46 0
7 8 9 57 58 61 0
7 8 10 57 59 62 0
7 8 11 57 60 63 0
7 9 10 58 59 64 0
7 9 11 58 60 65 0
7 10 11 59 60 66 0
8 9 10 61 62 64 0
8 9 11 61 63 65 0
8 10 11 62 63 66 0
9 10 11 64 65 66 0
-12 -17 -18 -26 -27 -57 0
13 14 15 31 32 39 0
13 14 16 31 33 40 0
13 14 19 31 36 43 0
13 14 20 31 37 44 0
13 14 21 31 38 45 0
13 15 16 32 33 46 0
13 15 19 32 36 49 0
13 15 20 32 37 50 0
13 15 21 32 38 51 0
13 16 19 33 36 54 0
13 16 20 33 37 55 0
13 16 21 33 38 56 0
13 19 20 36 37 64 0
13 19 21 36 38 65 0
13 20 21 37 38 66 0
14 15 16 39 40 46 0
14 15 19 39 43 49 0
14 15 20 39 44 50 0
14 15 21 39 45 51 0
14 16 19 40 43 54 0
14 16 20 40 44 55 0
14 16 21 40 45 56 0
14 19 20 43 44 64 0
14 19 21 43 45 65 0
14 20 21 44 45 66 0
15 16 19 46 49 54 0
15 16 20 46 50 55 0
15 16 21 46 51 56 0
15 19 20 49 50 64 0
15 19 21 49 51 65 0
15 20 21 50 51 66 0
16 19 20 54 55 64 0
16 19 21 54 56 65 0
16 20 21 55 56 66 0
-22 -26 -28 -34 -36 -58 0
-22 -26 -29 -34 -37 -59 0
-22 -27 -28 -35 -36 -61 0
-22 -27 -29 -35 -37 -62 0
-22 -27 -30 -35 -38 -63 0
-22 -28 -29 -36 -37 -64 0
-22 -28 -30 -36 -38 -65 0
-22 -29 -30 -37 -38 -66 0
-23 -26 -28 -41 -43 -58 0
-23 -26 -29 -41 -44 -59 0
-23 -26 -30 -41 -45 -60 0
-23 -27 -28 -42 -43 -61 0
-23 -27 -30 -42 -45 -63 0
-23 -28 -29 -43 -44 -64 0
-23 -28 -30 -43 -45 -65 0
-23 -29 -30 -44 -45 -66 0
24 25 26 46 47 52 0
24 25 27 46 48 53 0
24 26 28 47 49 58 0
24 26 29 47 50 59 0
24 26 30 47 51 60 0
24 27 28 48 49 61 0
24 27 29 48 50 62 0
24 27 30 48 51 63 0
25 26 27 52 53 57 0
25 26 28 52 54 58 0
25 26 29 52 55 59 0
25 26 30 52 56 60 0
25 27 28 53 54 61 0
25 27 29 53 55 62 0
25 27 30 53 56 63 0
25 28 29 54 55 64 0
31 34 35 41 42 57 0
-32 -33 -38 -46 -51 -56 0
-32 -34 -36 -47 -49 -58 0
-32 -34 -37 -47 -50 -59 0
-32 -34 -38 -47 -51 -60 0
-32 -35 -36 -48 -49 -61 0
-32 -35 -37 -48 -50 -62 0
-32 -35 -38 -48 -51 -63 0
-32 -36 -37 -49 -50 -64 0
-32 -36 -38 -49 -51 -65 0
-32 -37 -38 -50 -51 -66 0
-33 -34 -36 -52 -54 -58 0
-33 -34 -37 -52 -55 -59 0
-33 -34 -38 -52 -56 -60 0
-33 -35 -36 -53 -54 -61 0
-33 -35 -37 -53 -55 -62 0
-33 -35 -38 -53 -56 -63 0
-33 -36 -37 -54 -55 -64 0
-33 -36 -38 -54 -56 -65 0
-33 -37 -38 -55 -56 -66 0
-34 -36 -37 -58 -59 -64 0
-34 -36 -38 -58 -60 -65 0
-34 -37 -38 -59 -60 -66 0
-35 -36 -37 -61 -62 -64 0
-35 -36 -38 -61 -63 -65 0
-35 -37 -38 -62 -63 -66 0
-36 -37 -38 -64 -65 -66 0
-39 -40 -43 -46 -49 -54 0
-39 -41 -43 -47 -49 -58 0
-39 -41 -44 -47 -50 -59 0
-39 -41 -45 -47 -51 -60 0
-39 -42 -43 -48 -49 -61 0
-39 -42 -44 -48 -50 -62 0
-39 -42 -45 -48 -51 -63 0
-39 -43 -44 -49 -50 -64 0
-39 -43 -45 -49 -51 -65 0
-39 -44 -45 -50 -51 -66 0
-40 -41 -43 -52 -54 -58 0
-40 -41 -44 -52 -55 -59 0
-40 -41 -45 -52 -56 -60 0
-40 -42 -43 -53 -54 -61 0
-40 -42 -44 -53 -55 -62 0
-40 -42 -45 -53 -56 -63 0
-40 -43 -44 -54 -55 -64 0
-40 -43 -45 -54 -56 -65 0
-40 -44 -45 -55 -56 -66 0
-41 -43 -44 -58 -59 -64 0
-41 -43 -45 -58 -60 -65 0
-41 -44 -45 -59 -60 -66 0
-42 -43 -44 -61 -62 -64 0
-42 -43 -45 -61 -63 -65 0
-42 -44 -45 -62 -63 -66 0
-43 -44 -45 -64 -65 -66 0
-46 -47 -49 -52 -54 -58 0
-46 -47 -50 -52 -55 -59 0
-46 -47 -51 -52 -56 -60 0
-46 -48 -49 -53 -54 -61 0
-46 -48 -50 -53 -55 -62 0
-46 -48 -51 -53 -56 -63 0
-46 -49 -50 -54 -55 -64 0
-46 -49 -51 -54 -56 -65 0
-46 -50 -51 -55 -56 -66 0
-47 -49 -50 -58 -59 -64 0
-47 -49 -51 -58 -60 -65 0
-47 -50 -51 -59 -60 -66 0
-48 -49 -50 -61 -62 -64 0
-48 -49 -51 -61 -63 -65 0
-48 -50 -51 -62 -63 -66 0
-49 -50 -51 -64 -65 -66 0
-52 -53 -54 -57 -58 -61 0
-52 -54 -55 -58 -59 -64 0
-52 -54 -56 -58 -60 -65 0
-52 -55 -56 -59 -60 -66 0
-53 -54 -55 -61 -62 -64 0
-53 -54 -56 -61 -63 -65 0
-53 -55 -56 -62 -63 -66 0
-54 -55 -56 -64 -65 -66 0
-57 -58 -60 -61 -63 -65 0
-58 -59 -60 -64 -65 -66 0
-61 -62 -63 -64 -65 -66 0
67 -1 -2 -12 0
77 -2 -3 -22 0
78 -2 -4 -23 0
87 -3 -5 -32 0
88 -3 -6 -33 0
94 -4 -5 -39 0
95 -4 -6 -40 0
101 -5 -6 -46 0
112 7 8 57 0
113 7 9 58 0
114 7 10 59 0
115 7 11 60 0
116 8 9 61 0
117 8 10 62 0
118 8 11 63 0
119 9 10 64 0
120 9 11 65 0
121 10 11 66 0
126 -12 -17 -26 0
127 -12 -18 -27 0
131 13 14 31 0
132 13 15 32 0
133 13 16 33 0
136 13 19 36 0
137 13 20 37 0
138 13 21 38 0
139 14 15 39 0
140 14 16 40 0
143 14 19 43 0
144 14 20 44 0
145 14 21 45 0
146 15 16 46 0
149 15 19 49 0
150 15 20 50 0
151 15 21 51 0
154 16 19 54 0
155 16 20 55 0
156 16 21 56 0
157 -17 -18 -57 0
164 19 20 64 0
165 19 21 65 0
166 20 21 66 0
170 -22 -26 -34 0
171 -22 -27 -35 0
172 -22 -28 -36 0
173 -22 -29 -37 0
174 -22 -30 -38 0
177 -23 -26 -41 0
178 -23 -27 -42 0
179 -23 -28 -43 0
180 -23 -29 -44 0
181 -23 -30 -45 0
182 24 25 46 0
183 24 26 47 0
184 24 27 48 0
185 24 28 49 0
186 24 29 50 0
187 24 30 51 0
188 25 26 52 0
189 25 27 53 0
190 25 28 54 0
191 25 29 55 0
192 25 30 56 0
193 26 27 57 0
194 -26 -28 -58 0
194 26 28 58 0
195 -26 -29 -59 0
195 26 29 59 0
196 -26 -30 -60 0
196 26 30 60 0
197 -27 -28 -61 0
197 27 28 61 0
198 -27 -29 -62 0
198 27 29 62 0
199 -27 -30 -63 0
199 27 30 63 0
200 -28 -29 -64 0
200 28 29 64 0
201 -28 -30 -65 0
201 28 30 65 0
202 -29 -30 -66 0
202 29 30 66 0
205 31 34 41 0
206 31 35 42 0
211 -32 -34 -47 0
211 32 34 47 0
212 -32 -35 -48 0
212 32 35 48 0
213 -32 -36 -49 0
214 -32 -37 -50 0
215 -32 -38 -51 0
215 32 38 51 0
216 -33 -34 -52 0
216 33 34 52 0
217 -33 -35 -53 0
217 33 35 53 0
218 -33 -36 -54 0
219 -33 -37 -55 0
220 -33 -38 -56 0
220 33 38 56 0
221 -34 -35 -57 0
221 34 35 57 0
222 -34 -36 -58 0
222 34 36 58 0
223 -34 -37 -59 0
223 34 37 59 0
224 -34 -38 -60 0
224 34 38 60 0
225 -35 -36 -61 0
225 35 36 61 0
226 -35 -37 -62 0
226 35 37 62 0
227 -35 -38 -63 0
227 35 38 63 0
228 -36 -37 -64 0
229 -36 -38 -65 0
230 -37 -38 -66 0
232 -39 -41 -47 0
232 39 41 47 0
233 -39 -42 -48 0
233 39 42 48 0
234 -39 -43 -49 0
235 -39 -44 -50 0
235 39 44 50 0
236 -39 -45 -51 0
237 -40 -41 -52 0
237 40 41 52 0
238 -40 -42 -53 0
238 40 42 53 0
239 -40 -43 -54 0
240 -40 -44 -55 0
241 -40 -45 -56 0
242 -41 -42 -57 0
242 41 42 57 0
243 -41 -43 -58 0
243 41 43 58 0
244 -41 -44 -59 0
244 41 44 59 0
245 -41 -45 -60 0
245 41 45 60 0
246 -42 -43 -61 0
246 42 43 61 0
247 -42 -44 -62 0
247 42 44 62 0
248 -42 -45 -63 0
248 42 45 63 0
249 -43 -44 -64 0
250 -43 -45 -65 0
251 -44 -45 -66 0
252 -46 -47 -52 0
252 46 47 52 0
253 -46 -48 -53 0
253 46 48 53 0
254 -46 -49 -54 0
255 -46 -50 -55 0
256 -46 -51 -56 0
257 -47 -48 -57 0
257 47 48 57 0
258 -47 -49 -58 0
258 47 49 58 0
259 -47 -50 -59 0
259 47 50 59 0
260 -47 -51 -60 0
260 47 51 60 0
261 -48 -49 -61 0
261 48 49 61 0
262 -48 -50 -62 0
262 48 50 62 0
263 -48 -51 -63 0
263 48 51 63 0
264 -49 -50 -64 0
265 -49 -51 -65 0
266 -50 -51 -66 0
267 -52 -53 -57 0
267 52 53 57 0
268 -52 -54 -58 0
268 52 54 58 0
269 -52 -55 -59 0
269 52 55 59 0
270 -52 -56 -60 0
270 52 56 60 0
271 -53 -54 -61 0
271 53 54 61 0
272 -53 -55 -62 0
272 53 55 62 0
273 -53 -56 -63 0
273 53 56 63 0
274 -54 -55 -64 0
275 -54 -56 -65 0
276 -55 -56 -66 0
277 -57 -58 -61 0
278 -57 -59 -62 0
279 -57 -60 -63 0
280 -58 -59 -64 0
280 58 59 64 0
281 -58 -60 -65 0
282 -59 -60 -66 0
282 59 60 66 0
283 -61 -62 -64 0
284 -61 -63 -65 0
285 -62 -63 -66 0
286 -64 -65 -66 0
-67 -205 -261 -276 0
-67 -211 -239 -285 0
-67 -211 -240 -284 0
-67 -211 -241 -283 0
-67 -212 -239 -282 0
-67 -212 -240 -281 0
-67 -212 -241 -280 0
-67 -212 -251 -268 0
-67 -213 -238 -282 0
-67 -213 -240 -279 0
-67 -213 -241 -278 0
-67 -213 -242 -276 0
-67 -213 -244 -273 0
-67 -213 -245 -272 0
-67 -213 -247 -270 0
-67 -213 -248 -269 0
-67 -213 -251 -267 0
-67 -214 -237 -284 0
-67 -214 -238 -281 0
-67 -214 -239 -279 0
-67 -214 -241 -277 0
-67 -214 -242 -275 0
-67 -214 -243 -273 0
-67 -214 -250 -267 0
-67 -215 -237 -283 0
-67 -215 -239 -278 0
-67 -215 -240 -277 0
-67 -215 -242 -274 0
-67 -215 -243 -272 0
-67 -215 -244 -271 0
-67 -215 -249 -267 0
-67 -216 -234 -285 0
-67 -216 -236 -283 0
-67 -216 -246 -266 0
-67 -216 -248 -264 0
-67 -217 -234 -282 0
-67 -217 -235 -281 0
-67 -217 -243 -266 0
-67 -217 -251 -258 0
-67 -218 -232 -285 0
-67 -218 -233 -282 0
-67 -218 -235 -279 0
-67 -218 -236 -278 0
-67 -218 -242 -266 0
-67 -218 -244 -263 0
-67 -218 -245 -262 0
-67 -218 -247 -260 0
-67 -218 -251 -257 0
-67 -219 -233 -281 0
-67 -219 -234 -279 0
-67 -219 -236 -277 0
-67 -219 -242 -265 0
-67 -219 -243 -263 0
-67 -219 -245 -261 0
-67 -219 -250 -257 0
-67 -220 -232 -283 0
-67 -220 -233 -280 0
-67 -220 -234 -278 0
-67 -220 -235 -277 0
-67 -220 -242 -264 0
-67 -220 -243 -262 0
-67 -220 -244 -261 0
-67 -220 -247 -258 0
-67 -220 -249 -257 0
-67 -221 -234 -276 0
-67 -221 -235 -275 0
-67 -221 -236 -274 0
-67 -221 -239 -266 0
-67 -221 -240 -265 0
-67 -221 -241 -264 0
-67 -221 -249 -256 0
-67 -221 -250 -255 0
-67 -221 -251 -254 0
-67 -222 -235 -273 0
-67 -222 -236 -272 0
-67 -222 -240 -263 0
-67 -222 -241 -262 0
-67 -222 -248 -255 0
-67 -223 -234 -273 0
-67 -223 -236 -271 0
-67 -223 -241 -261 0
-67 -223 -246 -256 0
-67 -223 -250 -253 0
-67 -224 -234 -272 0
-67 -224 -235 -271 0
-67 -224 -239 -262 0
-67 -225 -235 -270 0
-67 -225 -236 -269 0
-67 -225 -241 -259 0
-67 -225 -245 -255 0
-67 -225 -251 -252 0
-67 -226 -232 -275 0
-67 -226 -241 -258 0
-67 -226 -250 -252 0
-67 -227 -239 -259 0
-67 -228 -236 -267 0
-67 -228 -237 -263 0
-67 -228 -241 -257 0
-67 -228 -242 -256 0
-67 -228 -245 -253 0
-67 -229 -235 -267 0
-67 -229 -240 -257 0
-67 -229 -242 -255 0
-67 -230 -232 -271 0
-67 -230 -233 -268 0
-67 -230 -234 -267 0
-67 -230 -239 -257 0
-67 -230 -242 -254 0
-77 -139 -268 -285 0
-77 -139 -269 -284 0
-77 -139 -270 -283 0
-77 -139 -271 -282 0
-77 -139 -272 -281 0
-77 -139 -273 -280 0
-77 -139 -274 -279 0
-77 -139 -275 -278 0
-77 -139 -276 -277 0
-77 -140 -258 -285 0
-77 -140 -260 -283 0
-77 -140 -261 -282 0
-77 -140 -262 -281 0
-77 -140 -263 -280 0
-77 -140 -264 -279 0
-77 -140 -265 -278 0
-77 -140 -266 -277 0
-77 -143 -252 -285 0
-77 -143 -255 -279 0
-77 -143 -256 -278 0
-77 -143 -259 -273 0
-77 -143 -260 -272 0
-77 -143 -266 -267 0
-77 -144 -252 -284 0
-77 -144 -253 -281 0
-77 -144 -254 -279 0
-77 -144 -260 -271 0
-77 -144 -261 -270 0
-77 -144 -263 -268 0
-77 -145 -254 -278 0
-77 -145 -257 -274 0
-77 -145 -258 -272 0
-77 -145 -262 -268 0
-77 -145 -264 -267 0
-77 -146 -242 -286 0
-77 -146 -243 -285 0
-77 -146 -244 -284 0
-77 -146 -245 -283 0
-77 -146 -246 -282 0
-77 -146 -247 -281 0
-77 -146 -248 -280 0
-77 -146 -249 -279 0
-77 -146 -250 -278 0
-77 -146 -251 -277 0
-77 -149 -237 -285 0
-77 -149 -238 -282 0
-77 -149 -240 -279 0
-77 -149 -244 -273 0
-77 -149 -247 -270 0
-77 -149 -251 -267 0
-77 -150 -239 -279 0
-77 -150 -241 -277 0
-77 -150 -243 -273 0
-77 -150 -246 -270 0
-77 -150 -250 -267 0
-77 -151 -237 -283 0
-77 -151 -239 -278 0
-77 -151 -240 -277 0
-77 -151 -242 -274 0
-77 -151 -243 -272 0
-77 -151 -246 -269 0
-77 -151 -249 -267 0
-77 -154 -233 -282 0
-77 -154 -236 -278 0
-77 -154 -242 -266 0
-77 -155 -234 -279 0
-77 -155 -243 -263 0
-77 -155 -248 -258 0
-77 -155 -250 -257 0
-77 -156 -233 -280 0
-77 -156 -234 -278 0
-77 -156 -235 -277 0
-77 -156 -242 -264 0
-77 -156 -243 -262 0
-77 -156 -244 -261 0
-77 -156 -246 -259 0
-77 -156 -247 -258 0
-77 -156 -249 -257 0
-77 -157 -234 -276 0
-77 -157 -235 -275 0
-77 -157 -236 -274 0
-77 -157 -239 -266 0
-77 -157 -240 -265 0
-77 -157 -241 -264 0
-77 -157 -249 -256 0
-77 -157 -250 -255 0
-77 -157 -251 -254 0
-77 -164 -236 -267 0
-77 -164 -237 -263 0
-77 -164 -241 -257 0
-77 -164 -242 -256 0
-77 -164 -245 -253 0
-77 -164 -248 -252 0
-77 -165 -232 -272 0
-77 -165 -233 -269 0
-77 -165 -235 -267 0
-77 -165 -237 -262 0
-77 -165 -240 -257 0
-77 -165 -242 -255 0
-77 -165 -247 -252 0
-77 -166 -234 -267 0
-77 -166 -237 -261 0
-77 -166 -239 -257 0
-77 -166 -242 -254 0
-77 -166 -243 -253 0
-78 -132 -268 -285 0
-78 -132 -270 -283 0
-78 -132 -271 -282 0
-78 -132 -273 -280 0
-78 -132 -274 -279 0
-78 -132 -276 -277 0
-78 -133 -258 -285 0
-78 -133 -259 -284 0
-78 -133 -260 -283 0
-78 -133 -261 -282 0
-78 -133 -262 -281 0
-78 -133 -263 -280 0
-78 -133 -264 -279 0
-78 -133 -265 -278 0
-78 -133 -266 -277 0
-78 -136 -253 -282 0
-78 -136 -256 -278 0
-78 -136 -257 -276 0
-78 -136 -259 -273 0
-78 -136 -260 -272 0
-78 -136 -262 -270 0
-78 -136 -263 -269 0
-78 -137 -254 -279 0
-78 -137 -257 -275 0
-78 -137 -258 -273 0
-78 -137 -260 -271 0
-78 -137 -261 -270 0
-78 -137 -263 -268 0
-78 -138 -257 -274 0
-78 -138 -258 -272 0
-78 -138 -259 -271 0
-78 -146 -222 -285 0
-78 -146 -223 -284 0
-78 -146 -224 -283 0
-78 -146 -225 -282 0
-78 -146 -226 -281 0
-78 -146 -227 -280 0
-78 -146 -228 -279 0
-78 -146 -229 -278 0
-78 -146 -230 -277 0
-78 -149 -217 -282 0
-78 -149 -219 -279 0
-78 -149 -220 -278 0
-78 -149 -221 -276 0
-78 -149 -226 -270 0
-78 -149 -230 -267 0
-78 -150 -218 -279 0
-78 -150 -220 -277 0
-78 -150 -225 -270 0
-78 -151 -219 -277 0
-78 -151 -222 -272 0
-78 -151 -223 -271 0
-78 -151 -225 -269 0
-78 -151 -226 -268 0
-78 -151 -228 -267 0
-78 -154 -212 -282 0
-78 -154 -214 -279 0
-78 -154 -221 -266 0
-78 -154 -230 -257 0
-78 -155 -212 -281 0
-78 -155 -213 -279 0
-78 -155 -215 -277 0
-78 -155 -221 -265 0
-78 -155 -222 -263 0
-78 -155 -224 -261 0
-78 -155 -225 -260 0
-78 -155 -227 -258 0
-78 -155 -229 -257 0
-78 -156 -214 -277 0
-78 -156 -221 -264 0
-78 -156 -223 -261 0
-78 -156 -228 -257 0
-78 -157 -213 -276 0
-78 -157 -214 -275 0
-78 -157 -215 -274 0
-78 -157 -218 -266 0
-78 -157 -219 -265 0
-78 -157 -220 -264 0
-78 -157 -228 -256 0
-78 -157 -229 -255 0
-78 -157 -230 -254 0
-78 -164 -211 -273 0
-78 -164 -212 -270 0
-78 -164 -215 -267 0
-78 -164 -216 -263 0
-78 -164 -217 -260 0
-78 -164 -220 -257 0
-78 -164 -221 -256 0
-78 -164 -227 -252 0
-78 -165 -211 -272 0
-78 -165 -212 -269 0
-78 -165 -214 -267 0
-78 -165 -219 -257 0
-78 -166 -211 -271 0
-78 -166 -212 -268 0
-78 -166 -213 -267 0
-78 -166 -218 -257 0
-78 -166 -221 -254 0
-78 -166 -222 -253 0
-78 -166 -225 -252 0
-87 -126 -239 -285 0
-87 -126 -240 -284 0
-87 -126 -241 -283 0
-87 -126 -246 -276 0
-87 -126 -247 -275 0
-87 -126 -248 -274 0
-87 -126 -249 -273 0
-87 -126 -250 -272 0
-87 -126 -251 -271 0
-87 -127 -237 -286 0
-87 -127 -239 -282 0
-87 -127 -240 -281 0
-87 -127 -241 -280 0
-87 -127 -243 -276 0
-87 -127 -244 -275 0
-87 -127 -245 -274 0
-87 -127 -249 -270 0
-87 -127 -250 -269 0
-87 -127 -251 -268 0
-87 -140 -194 -285 0
-87 -140 -196 -283 0
-87 -140 -197 -282 0
-87 -143 -189 -282 0
-87 -143 -193 -276 0
-87 -143 -195 -273 0
-87 -143 -202 -267 0
-87 -144 -188 -284 0
-87 -144 -189 -281 0
-87 -144 -193 -275 0
-87 -145 -188 -283 0
-87 -145 -189 -280 0
-87 -145 -193 -274 0
-87 -145 -194 -272 0
-87 -145 -195 -271 0
-87 -154 -178 -282 0
-87 -154 -193 -251 0
-87 -154 -198 -245 0
-87 -155 -179 -279 0
-87 -155 -181 -277 0
-87 -155 -193 -250 0
-87 -155 -194 -248 0
-87 -155 -197 -245 0
-87 -156 -193 -249 0
-87 -156 -195 -246 0
-87 -156 -197 -244 0
-87 -156 -200 -242 0
-87 -157 -179 -276 0
-87 -157 -180 -275 0
-87 -157 -181 -274 0
-87 -157 -190 -251 0
-87 -157 -191 -250 0
-87 -157 -192 -249 0
-87 -157 -200 -241 0
-87 -157 -201 -240 0
-87 -157 -202 -239 0
-87 -164 -177 -273 0
-87 -164 -178 -270 0
-87 -164 -181 -267 0
-87 -164 -192 -242 0
-87 -164 -193 -241 0
-87 -164 -196 -238 0
-87 -164 -199 -237 0
-87 -165 -178 -269 0
-87 -165 -188 -247 0
-87 -165 -189 -244 0
-87 -165 -191 -242 0
-87 -165 -193 -240 0
-87 -166 -178 -268 0
-87 -166 -189 -243 0
-87 -166 -190 -242 0
-87 -166 -193 -239 0
-87 -166 -197 -237 0
-88 -126 -233 -286 0
-88 -126 -234 -285 0
-88 -126 -235 -284 0
-88 -126 -236 -283 0
-88 -126 -246 -266 0
-88 -126 -247 -265 0
-88 -126 -248 -264 0
-88 -126 -249 -263 0
-88 -126 -250 -262 0
-88 -126 -251 -261 0
-88 -127 -232 -286 0
-88 -127 -234 -282 0
-88 -127 -235 -281 0
-88 -127 -236 -280 0
-88 -127 -243 -266 0
-88 -127 -244 -265 0
-88 -127 -245 -264 0
-88 -127 -249 -260 0
-88 -127 -250 -259 0
-88 -127 -251 -258 0
-88 -139 -195 -284 0
-88 -139 -197 -282 0
-88 -143 -183 -285 0
-88 -143 -184 -282 0
-88 -143 -193 -266 0
-88 -144 -184 -281 0
-88 -144 -185 -279 0
-88 -144 -187 -277 0
-88 -144 -193 -265 0
-88 -144 -194 -263 0
-88 -145 -183 -283 0
-88 -145 -184 -280 0
-88 -145 -193 -264 0
-88 -145 -195 -261 0
-88 -149 -193 -251 0
-88 -149 -198 -245 0
-88 -149 -199 -244 0
-88 -149 -202 -242 0
-88 -150 -193 -250 0
-88 -150 -197 -245 0
-88 -150 -199 -243 0
-88 -151 -177 -283 0
-88 -151 -193 -249 0
-88 -151 -198 -243 0
-88 -151 -200 -242 0
-88 -157 -179 -266 0
-88 -157 -180 -265 0
-88 -157 -181 -264 0
-88 -157 -185 -251 0
-88 -157 -186 -250 0
-88 -157 -187 -249 0
-88 -157 -200 -236 0
-88 -157 -201 -235 0
-88 -157 -202 -234 0
-88 -164 -177 -263 0
-88 -164 -178 -260 0
-88 -164 -187 -242 0
-88 -164 -193 -236 0
-88 -165 -177 -262 0
-88 -165 -178 -259 0
-88 -165 -183 -247 0
-88 -165 -184 -244 0
-88 -165 -186 -242 0
-88 -165 -193 -235 0
-88 -165 -198 -232 0
-88 -166 -177 -261 0
-88 -166 -178 -258 0
-88 -166 -183 -246 0
-88 -166 -184 -243 0
-88 -166 -185 -242 0
-88 -166 -193 -234 0
-88 -166 -194 -233 0
-88 -166 -197 -232 0
-94 -126 -217 -286 0
-94 -126 -218 -285 0
-94 -126 -219 -284 0
-94 -126 -220 -283 0
-94 -126 -225 -276 0
-94 -126 -226 -275 0
-94 -126 -227 -274 0
-94 -126 -228 -273 0
-94 -126 -229 -272 0
-94 -126 -230 -271 0
-94 -127 -216 -286 0
-94 -127 -218 -282 0
-94 -127 -219 -281 0
-94 -127 -220 -280 0
-94 -127 -222 -276 0
-94 -127 -223 -275 0
-94 -127 -224 -274 0
-94 -127 -228 -270 0
-94 -127 -229 -269 0
-94 -127 -230 -268 0
-94 -133 -198 -281 0
-94 -136 -188 -285 0
-94 -136 -189 -282 0
-94 -136 -191 -279 0
-94 -136 -193 -276 0
-94 -137 -189 -281 0
-94 -137 -193 -275 0
-94 -138 -188 -283 0
-94 -138 -193 -274 0
-94 -138 -198 -268 0
-94 -154 -171 -282 0
-94 -154 -193 -230 0
-94 -154 -195 -227 0
-94 -154 -198 -224 0
-94 -154 -202 -221 0
-94 -155 -193 -229 0
-94 -155 -197 -224 0
-94 -156 -170 -283 0
-94 -156 -193 -228 0
-94 -156 -195 -225 0
-94 -156 -200 -221 0
-94 -157 -172 -276 0
-94 -157 -173 -275 0
-94 -157 -174 -274 0
-94 -157 -190 -230 0
-94 -157 -191 -229 0
-94 -157 -192 -228 0
-94 -157 -200 -220 0
-94 -157 -201 -219 0
-94 -157 -202 -218 0
-94 -164 -171 -270 0
-94 -164 -189 -224 0
-94 -164 -192 -221 0
-94 -164 -193 -220 0
-94 -164 -196 -217 0
-94 -164 -199 -216 0
-94 -165 -173 -267 0
-94 -165 -189 -223 0
-94 -165 -191 -221 0
-94 -165 -193 -219 0
-94 -165 -198 -216 0
-94 -166 -171 -268 0
-94 -166 -188 -225 0
-94 -166 -190 -221 0
-94 -166 -193 -218 0
-94 -166 -194 -217 0
-94 -166 -197 -216 0
-95 -126 -213 -285 0
-95 -126 -214 -284 0
-95 -126 -215 -283 0
-95 -126 -225 -266 0
-95 -126 -226 -265 0
-95 -126 -227 -264 0
-95 -126 -228 -263 0
-95 -126 -229 -262 0
-95 -126 -230 -261 0
-95 -127 -213 -282 0
-95 -127 -214 -281 0
-95 -127 -215 -280 0
-95 -127 -222 -266 0
-95 -127 -223 -265 0
-95 -127 -224 -264 0
-95 -127 -228 -260 0
-95 -127 -229 -259 0
-95 -127 -230 -258 0
-95 -132 -194 -285 0
-95 -132 -198 -281 0
-95 -136 -183 -285 0
-95 -136 -184 -282 0
-95 -136 -193 -266 0
-95 -136 -198 -260 0
-95 -137 -183 -284 0
-95 -137 -184 -281 0
-95 -137 -193 -265 0
-95 -137 -197 -260 0
-95 -137 -201 -257 0
-95 -138 -183 -283 0
-95 -138 -193 -264 0
-95 -149 -170 -285 0
-95 -149 -171 -282 0
-95 -149 -193 -230 0
-95 -149 -198 -224 0
-95 -149 -199 -223 0
-95 -149 -202 -221 0
-95 -150 -193 -229 0
-95 -150 -194 -227 0
-95 -150 -196 -225 0
-95 -150 -197 -224 0
-95 -150 -201 -221 0
-95 -151 -171 -280 0
-95 -151 -193 -228 0
-95 -151 -194 -226 0
-95 -151 -195 -225 0
-95 -151 -197 -223 0
-95 -151 -200 -221 0
-95 -157 -172 -266 0
-95 -157 -173 -265 0
-95 -157 -174 -264 0
-95 -157 -185 -230 0
-95 -157 -186 -229 0
-95 -157 -187 -228 0
-95 -157 -200 -215 0
-95 -157 -201 -214 0
-95 -157 -202 -213 0
-95 -164 -171 -260 0
-95 -164 -183 -227 0
-95 -164 -187 -221 0
-95 -164 -193 -215 0
-95 -164 -196 -212 0
-95 -164 -199 -211 0
-95 -165 -170 -262 0
-95 -165 -171 -259 0
-95 -165 -173 -257 0
-95 -165 -183 -226 0
-95 -165 -184 -223 0
-95 -165 -186 -221 0
-95 -165 -193 -214 0
-95 -165 -198 -211 0
-95 -166 -170 -261 0
-95 -166 -171 -258 0
-95 -166 -183 -225 0
-95 -166 -184 -222 0
-95 -166 -185 -221 0
-95 -166 -193 -213 0
-95 -166 -197 -211 0
-101 -126 -206 -286 0
-101 -126 -225 -251 0
-101 -126 -226 -250 0
-101 -126 -227 -249 0
-101 -126 -228 -248 0
-101 -126 -229 -247 0
-101 -126 -230 -246 0
-101 -127 -205 -286 0
-101 -127 -222 -251 0
-101 -127 -223 -250 0
-101 -127 -224 -249 0
-101 -127 -228 -245 0
-101 -127 -229 -244 0
-101 -127 -230 -243 0
-101 -131 -193 -286 0
-101 -131 -194 -285 0
-101 -131 -196 -283 0
-101 -131 -197 -282 0
-101 -131 -198 -281 0
-101 -131 -199 -280 0
-101 -136 -180 -279 0
-101 -136 -193 -251 0
-101 -136 -198 -245 0
-101 -136 -199 -244 0
-101 -137 -193 -250 0
-101 -137 -196 -246 0
-101 -137 -197 -245 0
-101 -137 -199 -243 0
-101 -138 -193 -249 0
-101 -138 -194 -247 0
-101 -138 -195 -246 0
-101 -143 -193 -230 0
-101 -143 -195 -227 0
-101 -144 -172 -279 0
-101 -144 -193 -229 0
-101 -144 -196 -225 0
-101 -145 -193 -228 0
-101 -145 -197 -223 0
-101 -157 -172 -251 0
-101 -157 -173 -250 0
-101 -157 -174 -249 0
-101 -157 -179 -230 0
-101 -157 -180 -229 0
-101 -157 -181 -228 0
-101 -164 -171 -245 0
-101 -164 -177 -227 0
-101 -164 -178 -224 0
-101 -164 -181 -221 0
-101 -165 -171 -244 0
-101 -165 -177 -226 0
-101 -165 -180 -221 0
-101 -165 -198 -205 0
-101 -166 -170 -246 0
-101 -166 -171 -243 0
-101 -166 -179 -221 0
-112 -131 -182 -286 0
-112 -131 -185 -276 0
-112 -131 -186 -275 0
-112 -131 -187 -274 0
-112 -131 -190 -266 0
-112 -131 -191 -265 0
-112 -131 -192 -264 0
-112 -131 -200 -256 0
-112 -131 -201 -255 0
-112 -131 -202 -254 0
-112 -132 -179 -276 0
-112 -132 -180 -275 0
-112 -132 -181 -274 0
-112 -132 -190 -251 0
-112 -132 -191 -250 0
-112 -132 -192 -249 0
-112 -132 -202 -239 0
-112 -133 -179 -266 0
-112 -133 -180 -265 0
-112 -133 -181 -264 0
-112 -133 -185 -251 0
-112 -133 -186 -250 0
-112 -133 -187 -249 0
-112 -133 -200 -236 0
-112 -133 -201 -235 0
-112 -133 -202 -234 0
-112 -136 -180 -256 0
-112 -136 -181 -255 0
-112 -136 -182 -251 0
-112 -136 -186 -241 0
-112 -136 -187 -240 0
-112 -136 -191 -236 0
-112 -136 -192 -235 0
-112 -137 -179 -256 0
-112 -137 -181 -254 0
-112 -137 -182 -250 0
-112 -137 -185 -241 0
-112 -137 -187 -239 0
-112 -137 -190 -236 0
-112 -137 -192 -234 0
-112 -138 -179 -255 0
-112 -138 -180 -254 0
-112 -138 -182 -249 0
-112 -138 -185 -240 0
-112 -138 -186 -239 0
-112 -138 -190 -235 0
-112 -138 -191 -234 0
-112 -139 -172 -276 0
-112 -139 -173 -275 0
-112 -139 -174 -274 0
-112 -139 -190 -230 0
-112 -139 -191 -229 0
-112 -139 -192 -228 0
-112 -139 -200 -220 0
-112 -139 -201 -219 0
-112 -139 -202 -218 0
-112 -140 -172 -266 0
-112 -140 -173 -265 0
-112 -140 -174 -264 0
-112 -140 -185 -230 0
-112 -140 -186 -229 0
-112 -140 -187 -228 0
-112 -140 -200 -215 0
-112 -140 -201 -214 0
-112 -140 -202 -213 0
-112 -143 -173 -256 0
-112 -143 -174 -255 0
-112 -143 -182 -230 0
-112 -143 -186 -220 0
-112 -143 -187 -219 0
-112 -143 -191 -215 0
-112 -143 -192 -214 0
-112 -144 -172 -256 0
-112 -144 -174 -254 0
-112 -144 -182 -229 0
-112 -144 -185 -220 0
-112 -144 -187 -218 0
-112 -144 -190 -215 0
-112 -144 -192 -213 0
-112 -145 -172 -255 0
-112 -145 -173 -254 0
-112 -145 -182 -228 0
-112 -145 -185 -219 0
-112 -145 -186 -218 0
-112 -145 -190 -214 0
-112 -145 -191 -213 0
-112 -146 -172 -251 0
-112 -146 -173 -250 0
-112 -146 -174 -249 0
-112 -146 -179 -230 0
-112 -146 -180 -229 0
-112 -146 -181 -228 0
-112 -149 -173 -241 0
-112 -149 -174 -240 0
-112 -149 -180 -220 0
-112 -149 -181 -219 0
-112 -150 -172 -241 0
-112 -150 -174 -239 0
-112 -150 -179 -220 0
-112 -150 -181 -218 0
-112 -151 -172 -240 0
-112 -151 -173 -239 0
-112 -151 -179 -219 0
-112 -151 -180 -218 0
-112 -154 -173 -236 0
-112 -154 -174 -235 0
-112 -154 -180 -215 0
-112 -154 -181 -214 0
-112 -155 -172 -236 0
-112 -155 -174 -234 0
-112 -155 -179 -215 0
-112 -155 -181 -213 0
-112 -156 -172 -235 0
-112 -156 -173 -234 0
-112 -156 -179 -214 0
-112 -156 -180 -213 0
-113 -127 -214 -241 0
-113 -127 -215 -240 0
-113 -127 -219 -236 0
-113 -127 -220 -235 0
-113 -131 -182 -285 0
-113 -131 -184 -276 0
-113 -131 -186 -273 0
-113 -131 -187 -272 0
-113 -131 -191 -263 0
-113 -131 -192 -262 0
-113 -131 -198 -256 0
-113 -131 -199 -255 0
-113 -131 -202 -253 0
-113 -132 -181 -272 0
-113 -132 -191 -248 0
-113 -132 -192 -247 0
-113 -132 -198 -241 0
-113 -132 -199 -240 0
-113 -132 -202 -238 0
-113 -133 -181 -262 0
-113 -133 -184 -251 0
-113 -133 -186 -248 0
-113 -133 -187 -247 0
-113 -133 -199 -235 0
-113 -133 -202 -233 0
-113 -137 -182 -248 0
-113 -137 -184 -241 0
-113 -137 -187 -238 0
-113 -137 -192 -233 0
-113 -138 -182 -247 0
-113 -138 -184 -240 0
-113 -138 -186 -238 0
-113 -138 -189 -235 0
-113 -138 -191 -233 0
-113 -139 -173 -273 0
-113 -139 -174 -272 0
-113 -139 -189 -230 0
-113 -139 -191 -227 0
-113 -139 -192 -226 0
-113 -139 -198 -220 0
-113 -139 -199 -219 0
-113 -139 -202 -217 0
-113 -140 -173 -263 0
-113 -140 -184 -230 0
-113 -140 -186 -227 0
-113 -140 -187 -226 0
-113 -140 -198 -215 0
-113 -140 -199 -214 0
-113 -140 -202 -212 0
-113 -144 -182 -227 0
-113 -144 -184 -220 0
-113 -144 -189 -215 0
-113 -144 -192 -212 0
-113 -145 -182 -226 0
-113 -146 -173 -248 0
-113 -146 -174 -247 0
-113 -146 -178 -230 0
-113 -146 -180 -227 0
-113 -150 -171 -241 0
-113 -150 -178 -220 0
-113 -150 -181 -217 0
-113 -151 -171 -240 0
-113 -151 -173 -238 0
-113 -151 -178 -219 0
-113 -151 -191 -206 0
-113 -155 -171 -236 0
-113 -155 -174 -233 0
-113 -155 -178 -215 0
-113 -155 -187 -206 0
-113 -156 -171 -235 0
-113 -156 -178 -214 0
-113 -156 -186 -206 0
-113 -166 -182 -206 0
-114 -127 -213 -241 0
-114 -127 -215 -239 0
-114 -127 -218 -236 0
-114 -127 -220 -234 0
-114 -131 -182 -284 0
-114 -131 -184 -275 0
-114 -131 -187 -271 0
-114 -131 -189 -265 0
-114 -131 -190 -263 0
-114 -131 -192 -261 0
-114 -131 -197 -256 0
-114 -131 -199 -254 0
-114 -131 -201 -253 0
-114 -132 -190 -248 0
-114 -132 -192 -246 0
-114 -132 -197 -241 0
-114 -132 -199 -239 0
-114 -132 -201 -238 0
-114 -133 -179 -263 0
-114 -133 -181 -261 0
-114 -133 -187 -246 0
-114 -133 -197 -236 0
-114 -133 -199 -234 0
-114 -133 -201 -233 0
-114 -136 -182 -248 0
-114 -136 -184 -241 0
-114 -138 -182 -246 0
-114 -138 -184 -239 0
-114 -138 -185 -238 0
-114 -139 -189 -229 0
-114 -139 -192 -225 0
-114 -139 -199 -218 0
-114 -139 -201 -217 0
-114 -140 -197 -215 0
-114 -140 -199 -213 0
-114 -140 -201 -212 0
-114 -143 -182 -227 0
-114 -143 -184 -220 0
-114 -143 -187 -217 0
-114 -143 -192 -212 0
-114 -145 -182 -225 0
-114 -145 -184 -218 0
-114 -145 -185 -217 0
-114 -145 -189 -213 0
-114 -145 -190 -212 0
-114 -146 -171 -250 0
-114 -146 -172 -248 0
-114 -146 -174 -246 0
-114 -146 -181 -225 0
-114 -146 -201 -206 0
-114 -149 -171 -241 0
-114 -149 -178 -220 0
-114 -149 -192 -206 0
-114 -151 -171 -239 0
-114 -151 -178 -218 0
-114 -151 -190 -206 0
-114 -154 -171 -236 0
-114 -154 -178 -215 0
-114 -154 -187 -206 0
-114 -156 -171 -234 0
-114 -156 -178 -213 0
-114 -156 -185 -206 0
-114 -165 -182 -206 0
-115 -127 -213 -240 0
-115 -127 -214 -239 0
-115 -127 -218 -235 0
-115 -127 -219 -234 0
-115 -131 -182 -283 0
-115 -131 -184 -274 0
-115 -131 -185 -272 0
-115 -131 -186 -271 0
-115 -131 -189 -264 0
-115 -131 -190 -262 0
-115 -131 -191 -261 0
-115 -131 -197 -255 0
-115 -131 -198 -254 0
-115 -131 -200 -253 0
-115 -132 -190 -247 0
-115 -132 -191 -246 0
-115 -132 -197 -240 0
-115 -132 -198 -239 0
-115 -132 -200 -238 0
-115 -133 -180 -261 0
-115 -133 -184 -249 0
-115 -133 -185 -247 0
-115 -133 -186 -246 0
-115 -133 -197 -235 0
-115 -133 -198 -234 0
-115 -133 -200 -233 0
-115 -136 -182 -247 0
-115 -136 -184 -240 0
-115 -136 -186 -238 0
-115 -136 -189 -235 0
-115 -136 -191 -233 0
-115 -137 -182 -246 0
-115 -137 -184 -239 0
-115 -137 -185 -238 0
-115 -137 -189 -234 0
-115 -137 -190 -233 0
-115 -139 -172 -272 0
-115 -139 -173 -271 0
-115 -139 -189 -228 0
-115 -139 -190 -226 0
-115 -139 -191 -225 0
-115 -139 -197 -219 0
-115 -139 -198 -218 0
-115 -140 -173 -261 0
-115 -140 -184 -228 0
-115 -140 -186 -225 0
-115 -140 -197 -214 0
-115 -140 -198 -213 0
-115 -140 -200 -212 0
-115 -143 -173 -253 0
-115 -143 -182 -226 0
-115 -143 -184 -219 0
-115 -143 -189 -214 0
-115 -144 -172 -253 0
-115 -144 -182 -225 0
-115 -144 -184 -218 0
-115 -144 -185 -217 0
-115 -144 -189 -213 0
-115 -144 -190 -212 0
-115 -146 -172 -247 0
-115 -146 -173 -246 0
-115 -146 -179 -226 0
-115 -146 -180 -225 0
-115 -146 -200 -206 0
-115 -149 -171 -240 0
-115 -149 -173 -238 0
-115 -149 -178 -219 0
-115 -149 -180 -217 0
-115 -149 -191 -206 0
-115 -150 -171 -239 0
-115 -150 -172 -238 0
-115 -150 -178 -218 0
-115 -150 -179 -217 0
-115 -150 -190 -206 0
-115 -154 -171 -235 0
-115 -154 -173 -233 0
-115 -154 -178 -214 0
-115 -154 -180 -212 0
-115 -154 -186 -206 0
-115 -155 -171 -234 0
-115 -155 -178 -213 0
-115 -155 -179 -212 0
-115 -155 -185 -206 0
-115 -164 -182 -206 0
-116 -126 -214 -241 0
-116 -126 -215 -240 0
-116 -126 -219 -236 0
-116 -126 -220 -235 0
-116 -131 -182 -282 0
-116 -131 -183 -276 0
-116 -131 -186 -270 0
-116 -131 -187 -269 0
-116 -131 -188 -266 0
-116 -131 -191 -260 0
-116 -131 -192 -259 0
-116 -131 -195 -256 0
-116 -131 -196 -255 0
-116 -131 -202 -252 0
-116 -132 -181 -269 0
-116 -132 -188 -251 0
-116 -132 -192 -244 0
-116 -132 -195 -241 0
-116 -132 -196 -240 0
-116 -132 -202 -237 0
-116 -133 -195 -236 0
-116 -133 -196 -235 0
-116 -133 -202 -232 0
-116 -137 -182 -245 0
-116 -137 -183 -241 0
-116 -137 -192 -232 0
-116 -138 -182 -244 0
-116 -138 -188 -235 0
-116 -138 -191 -232 0
-116 -139 -188 -230 0
-116 -139 -191 -224 0
-116 -139 -192 -223 0
-116 -139 -195 -220 0
-116 -139 -196 -219 0
-116 -140 -173 -260 0
-116 -140 -183 -230 0
-116 -140 -186 -224 0
-116 -140 -187 -223 0
-116 -140 -195 -215 0
-116 -140 -196 -214 0
-116 -140 -202 -211 0
-116 -144 -182 -224 0
-116 -144 -183 -220 0
-116 -144 -187 -216 0
-116 -145 -182 -223 0
-116 -145 -183 -219 0
-116 -145 -186 -216 0
-116 -145 -188 -214 0
-116 -145 -191 -211 0
-116 -146 -170 -251 0
-116 -146 -173 -245 0
-116 -146 -174 -244 0
-116 -146 -177 -230 0
-116 -146 -180 -224 0
-116 -146 -181 -223 0
-116 -150 -170 -241 0
-116 -150 -174 -237 0
-116 -150 -177 -220 0
-116 -150 -192 -205 0
-116 -151 -170 -240 0
-116 -151 -173 -237 0
-116 -151 -177 -219 0
-116 -151 -180 -216 0
-116 -151 -191 -205 0
-116 -155 -170 -236 0
-116 -155 -177 -215 0
-116 -155 -187 -205 0
-116 -156 -170 -235 0
-116 -156 -177 -214 0
-116 -156 -186 -205 0
-116 -166 -182 -205 0
-117 -126 -213 -241 0
-117 -126 -215 -239 0
-117 -126 -218 -236 0
-117 -126 -220 -234 0
-117 -131 -182 -281 0
-117 -131 -183 -275 0
-117 -131 -187 -268 0
-117 -131 -188 -265 0
-117 -131 -192 -258 0
-117 -131 -194 -256 0
-117 -131 -196 -254 0
-117 -132 -179 -270 0
-117 -132 -192 -243 0
-117 -132 -194 -241 0
-117 -132 -201 -237 0
-117 -133 -179 -260 0
-117 -133 -185 -245 0
-117 -133 -194 -236 0
-117 -133 -201 -232 0
-117 -136 -182 -245 0
-117 -136 -183 -241 0
-117 -136 -188 -236 0
-117 -138 -182 -243 0
-117 -138 -183 -239 0
-117 -138 -188 -234 0
-117 -139 -190 -224 0
-117 -139 -192 -222 0
-117 -139 -194 -220 0
-117 -139 -196 -218 0
-117 -139 -201 -216 0
-117 -140 -174 -258 0
-117 -140 -194 -215 0
-117 -140 -196 -213 0
-117 -140 -201 -211 0
-117 -143 -182 -224 0
-117 -143 -183 -220 0
-117 -143 -187 -216 0
-117 -143 -192 -211 0
-117 -145 -182 -222 0
-117 -146 -170 -250 0
-117 -146 -172 -245 0
-117 -146 -174 -243 0
-117 -146 -179 -224 0
-117 -146 -181 -222 0
-117 -146 -201 -205 0
-117 -149 -170 -241 0
-117 -149 -177 -220 0
-117 -149 -192 -205 0
-117 -151 -170 -239 0
-117 -151 -177 -218 0
-117 -151 -190 -205 0
-117 -154 -170 -236 0
-117 -154 -177 -215 0
-117 -154 -187 -205 0
-117 -156 -170 -234 0
-117 -156 -177 -213 0
-117 -156 -185 -205 0
-117 -165 -182 -205 0
-118 -126 -213 -240 0
-118 -126 -214 -239 0
-118 -126 -218 -235 0
-118 -126 -219 -234 0
-118 -131 -182 -280 0
-118 -131 -183 -274 0
-118 -131 -186 -268 0
-118 -131 -188 -264 0
-118 -131 -190 -259 0
-118 -131 -194 -255 0
-118 -131 -195 -254 0
-118 -131 -200 -252 0
-118 -132 -180 -268 0
-118 -132 -190 -244 0
-118 -132 -191 -243 0
-118 -133 -183 -249 0
-118 -136 -182 -244 0
-118 -136 -183 -240 0
-118 -136 -186 -237 0
-118 -136 -188 -235 0
-118 -136 -191 -232 0
-118 -137 -182 -243 0
-118 -137 -183 -239 0
-118 -139 -173 -268 0
-118 -139 -190 -223 0
-118 -139 -194 -219 0
-118 -139 -195 -218 0
-118 -140 -173 -258 0
-118 -140 -183 -228 0
-118 -140 -185 -223 0
-118 -140 -186 -222 0
-118 -140 -194 -214 0
-118 -140 -195 -213 0
-118 -140 -200 -211 0
-118 -143 -173 -252 0
-118 -143 -182 -223 0
-118 -143 -183 -219 0
-118 -143 -186 -216 0
-118 -143 -188 -214 0
-118 -144 -182 -222 0
-118 -144 -183 -218 0
-118 -144 -190 -211 0
-118 -146 -170 -249 0
-118 -146 -172 -244 0
-118 -146 -173 -243 0
-118 -146 -179 -223 0
-118 -146 -180 -222 0
-118 -149 -170 -240 0
-118 -149 -173 -237 0
-118 -149 -177 -219 0
-118 -149 -180 -216 0
-118 -149 -191 -205 0
-118 -150 -170 -239 0
-118 -150 -172 -237 0
-118 -150 -177 -218 0
-118 -150 -190 -205 0
-118 -154 -170 -235 0
-118 -154 -173 -232 0
-118 -154 -177 -214 0
-118 -154 -180 -211 0
-118 -154 -186 -205 0
-118 -155 -170 -234 0
-118 -155 -177 -213 0
-118 -164 -182 -205 0
-119 -126 -206 -256 0
-119 -126 -212 -241 0
-119 -127 -215 -237 0
-119 -131 -182 -279 0
-119 -131 -183 -273 0
-119 -131 -187 -267 0
-119 -131 -188 -263 0
-119 -131 -189 -260 0
-119 -131 -192 -257 0
-119 -131 -193 -256 0
-119 -131 -199 -252 0
-119 -132 -178 -270 0
-119 -132 -192 -242 0
-119 -132 -193 -241 0
-119 -133 -183 -248 0
-119 -133 -187 -242 0
-119 -133 -196 -233 0
-119 -133 -199 -232 0
-119 -138 -182 -242 0
-119 -138 -184 -237 0
-119 -138 -189 -232 0
-119 -139 -188 -227 0
-119 -139 -192 -221 0
-119 -139 -199 -216 0
-119 -140 -171 -260 0
-119 -140 -183 -227 0
-119 -140 -184 -224 0
-119 -140 -187 -221 0
-119 -140 -193 -215 0
-119 -140 -199 -211 0
-119 -145 -182 -221 0
-119 -145 -184 -216 0
-119 -146 -170 -248 0
-119 -146 -171 -245 0
-119 -146 -174 -242 0
-119 -146 -177 -227 0
-119 -146 -178 -224 0
-119 -146 -181 -221 0
-119 -151 -170 -238 0
-119 -151 -171 -237 0
-119 -151 -188 -206 0
-119 -151 -189 -205 0
-119 -156 -184 -205 0
-120 -126 -206 -255 0
-120 -126 -212 -240 0
-120 -126 -214 -238 0
-120 -126 -217 -235 0
-120 -126 -219 -233 0
-120 -127 -214 -237 0
-120 -131 -182 -278 0
-120 -131 -183 -272 0
-120 -131 -184 -269 0
-120 -131 -186 -267 0
-120 -131 -188 -262 0
-120 -131 -189 -259 0
-120 -131 -191 -257 0
-120 -131 -198 -252 0
-120 -132 -177 -272 0
-120 -132 -178 -269 0
-120 -132 -188 -247 0
-120 -132 -189 -244 0
-120 -132 -191 -242 0
-120 -132 -198 -237 0
-120 -133 -177 -262 0
-120 -133 -183 -247 0
-120 -133 -184 -244 0
-120 -133 -193 -235 0
-120 -133 -198 -232 0
-120 -137 -178 -252 0
-120 -137 -182 -242 0
-120 -137 -184 -237 0
-120 -137 -189 -232 0
-120 -139 -171 -269 0
-120 -139 -191 -221 0
-120 -139 -198 -216 0
-120 -140 -184 -223 0
-120 -140 -186 -221 0
-120 -140 -198 -211 0
-120 -144 -182 -221 0
-120 -144 -184 -216 0
-120 -144 -189 -211 0
-120 -146 -170 -247 0
-120 -146 -171 -244 0
-120 -146 -173 -242 0
-120 -146 -177 -226 0
-120 -146 -178 -223 0
-120 -146 -180 -221 0
-120 -146 -195 -206 0
-120 -146 -198 -205 0
-120 -150 -171 -237 0
-120 -150 -177 -217 0
-120 -150 -188 -206 0
-120 -150 -189 -205 0
-120 -155 -171 -232 0
-120 -155 -177 -212 0
-120 -155 -184 -205 0
-121 -126 -213 -238 0
-121 -126 -217 -234 0
-121 -126 -218 -233 0
-121 -127 -205 -254 0
-121 -127 -213 -237 0
-121 -127 -216 -234 0
-121 -127 -218 -232 0
-121 -131 -182 -277 0
-121 -131 -183 -271 0
-121 -131 -184 -268 0
-121 -131 -185 -267 0
-121 -131 -188 -261 0
-121 -131 -189 -258 0
-121 -131 -190 -257 0
-121 -131 -193 -254 0
-121 -131 -194 -253 0
-121 -131 -197 -252 0
-121 -132 -178 -268 0
-121 -132 -188 -246 0
-121 -132 -189 -243 0
-121 -132 -190 -242 0
-121 -132 -193 -239 0
-121 -132 -197 -237 0
-121 -133 -183 -246 0
-121 -133 -185 -242 0
-121 -133 -197 -232 0
-121 -136 -178 -252 0
-121 -136 -182 -242 0
-121 -136 -184 -237 0
-121 -136 -188 -233 0
-121 -136 -189 -232 0
-121 -139 -190 -221 0
-121 -139 -194 -217 0
-121 -139 -197 -216 0
-121 -140 -184 -222 0
-121 -140 -185 -221 0
-121 -140 -193 -213 0
-121 -143 -182 -221 0
-121 -143 -188 -212 0
-121 -143 -189 -211 0
-121 -146 -170 -246 0
-121 -146 -171 -243 0
-121 -146 -172 -242 0
-121 -146 -177 -225 0
-121 -146 -178 -222 0
-121 -146 -194 -206 0
-121 -149 -171 -237 0
-121 -149 -188 -206 0
-121 -149 -189 -205 0
-121 -154 -171 -232 0
-121 -154 -178 -211 0
-121 -154 -183 -206 0
-121 -154 -184 -205 0
1 0
2 0
3 0
4 0
5 0
6 0
-7 0
-8 0
-9 0
-10 0
-11 0
12 0
-13 0
-14 0
-15 0
-16 0
17 0
18 0
-19 0
-20 0
-21 0
22 0
23 0
-24 0
-25 0
