p cnf 286 2022
-2 -3 -4 -22 -23 -31 0
-2 -3 -5 -22 -24 -32 0
-2 -3 -6 -22 -25 -33 0
-2 -4 -5 -23 -24 -39 0
-2 -4 -6 -23 -25 -40 0
-2 -5 -6 -24 -25 -46 0
-3 -4 -5 -31 -32 -39 0
-3 -4 -6 -31 -33 -40 0
-3 -5 -6 -32 -33 -46 0
-4 -5 -6 -39 -40 -46 0
7 8 9 57 58 61 0
7 8 10 57 59 62 0
7 8 11 57 60 63 0
7 9 10 58 59 64 0
7 9 11 58 60 65 0
7 10 11 59 60 66 0
8 9 10 61 62 64 0
8 9 11 61 63 65 0
8 10 11 62 63 66 0
9 10 11 64 65 66 0
12 13 14 22 23 31 0
12 13 15 22 24 32 0
12 13 16 22 25 33 0
12 13 21 22 30 38 0
12 14 15 23 24 39 0
12 14 16 23 25 40 0
12 14 21 23 30 45 0
12 15 16 24 25 46 0
12 15 21 24 30 51 0
12 16 21 25 30 56 0
13 14 15 31 32 39 0
13 14 16 31 33 40 0
13 14 21 31 38 45 0
13 15 16 32 33 46 0
13 15 21 32 38 51 0
13 16 21 33 38 56 0
14 15 16 39 40 46 0
14 15 21 39 45 51 0
14 16 21 40 45 56 0
15 16 21 46 51 56 0
-17 -18 -19 -57 -58 -61 0
-17 -18 -20 -57 -59 -62 0
-17 -19 -20 -58 -59 -64 0
-18 -19 -20 -61 -62 -64 0
-22 -25 -30 -33 -38 -56 0
-22 -26 -27 -34 -35 -57 0
22 26 27 34 35 57 0
-22 -26 -28 -34 -36 -58 0
22 26 28 34 36 58 0
-22 -26 -29 -34 -37 -59 0
22 26 29 34 37 59 0
-22 -26 -30 -34 -38 -60 0
-22 -27 -28 -35 -36 -61 0
22 27 28 35 36 61 0
-22 -27 -29 -35 -37 -62 0
22 27 29 35 37 62 0
-22 -27 -30 -35 -38 -63 0
-22 -28 -29 -36 -37 -64 0
22 28 29 36 37 64 0
-22 -28 -30 -36 -38 -65 0
-22 -29 -30 -37 -38 -66 0
23 26 27 41 42 57 0
-23 -26 -28 -41 -43 -58 0
23 26 29 41 44 59 0
-23 -26 -30 -41 -45 -60 0
23 27 28 42 43 61 0
-23 -27 -30 -42 -45 -63 0
23 28 29 43 44 64 0
-23 -28 -30 -43 -45 -65 0
-23 -29 -30 -44 -45 -66 0
24 26 27 47 48 57 0
24 26 28 47 49 58 0
24 26 29 47 50 59 0
-24 -26 -30 -47 -51 -60 0
24 27 28 48 49 61 0
24 27 29 48 50 62 0
-24 -27 -30 -48 -51 -63 0
24 28 29 49 50 64 0
-24 -28 -30 -49 -51 -65 0
-24 -29 -30 -50 -51 -66 0
25 26 27 52 53 57 0
25 26 28 52 54 58 0
25 26 29 52 55 59 0
-25 -26 -30 -52 -56 -60 0
25 27 28 53 54 61 0
25 27 29 53 55 62 0
-25 -27 -30 -53 -56 -63 0
25 28 29 54 55 64 0
-25 -28 -30 -54 -56 -65 0
-25 -29 -30 -55 -56 -66 0
-26 -27 -28 -57 -58 -61 0
-26 -27 -30 -57 -60 -63 0
-26 -28 -30 -58 -60 -65 0
-26 -29 -30 -59 -60 -66 0
-27 -28 -29 -61 -62 -64 0
-27 -28 -30 -61 -63 -65 0
-27 -29 -30 -62 -63 -66 0
-31 -32 -38 -39 -45 -51 0
31 34 35 41 42 57 0
31 34 36 41 43 58 0
31 34 37 41 44 59 0
-31 -34 -38 -41 -45 -60 0
31 35 36 42 43 61 0
31 36 37 43 44 64 0
-31 -36 -38 -43 -45 -65 0
-31 -37 -38 -44 -45 -66 0
32 34 35 47 48 57 0
32 34 36 47 49 58 0
32 34 37 47 50 59 0
-32 -34 -38 -47 -51 -60 0
32 35 36 48 49 61 0
32 35 37 48 50 62 0
-32 -35 -38 -48 -51 -63 0
32 36 37 49 50 64 0
-32 -36 -38 -49 -51 -65 0
-32 -37 -38 -50 -51 -66 0
33 34 35 52 53 57 0
33 34 36 52 54 58 0
-33 -34 -38 -52 -56 -60 0
33 35 36 53 54 61 0
33 35 37 53 55 62 0
-33 -35 -38 -53 -56 -63 0
33 36 37 54 55 64 0
-33 -36 -38 -54 -56 -65 0
-33 -37 -38 -55 -56 -66 0
-34 -35 -38 -57 -60 -63 0
-34 -37 -38 -59 -60 -66 0
-35 -36 -38 -61 -63 -65 0
-35 -37 -38 -62 -63 -66 0
-36 -37 -38 -64 -65 -66 0
39 41 42 47 48 57 0
39 41 43 47 49 58 0
39 41 44 47 50 59 0
-39 -41 -45 -47 -51 -60 0
39 42 43 48 49 61 0
39 42 44 48 50 62 0
-39 -42 -45 -48 -51 -63 0
39 43 44 49 50 64 0
-39 -44 -45 -50 -51 -66 0
40 41 43 52 54 58 0
40 41 44 52 55 59 0
-40 -41 -45 -52 -56 -60 0
40 42 43 53 54 61 0
40 42 44 53 55 62 0
-40 -42 -45 -53 -56 -63 0
40 43 44 54 55 64 0
-40 -43 -45 -54 -56 -65 0
-40 -44 -45 -55 -56 -66 0
-42 -44 -45 -62 -63 -66 0
46 47 48 52 53 57 0
46 47 49 52 54 58 0
-46 -47 -50 -52 -55 -59 0
46 47 50 52 55 59 0
-46 -47 -51 -52 -56 -60 0
46 48 49 53 54 61 0
46 48 50 53 55 62 0
-46 -48 -51 -53 -56 -63 0
-46 -49 -50 -54 -55 -64 0
46 49 50 54 55 64 0
-46 -49 -51 -54 -56 -65 0
-46 -50 -51 -55 -56 -66 0
-53 -55 -56 -62 -63 -66 0
77 -2 -3 -22 0
78 -2 -4 -23 0
79 -2 -5 -24 0
80 -2 -6 -25 0
86 -3 -4 -31 0
87 -3 -5 -32 0
88 -3 -6 -33 0
94 -4 -5 -39 0
95 -4 -6 -40 0
101 -5 -6 -46 0
112 7 8 57 0
113 7 9 58 0
114 7 10 59 0
115 7 11 60 0
116 8 9 61 0
117 8 10 62 0
118 8 11 63 0
119 9 10 64 0
120 9 11 65 0
121 10 11 66 0
122 12 13 22 0
123 12 14 23 0
124 12 15 24 0
125 12 16 25 0
130 12 21 30 0
131 13 14 31 0
132 13 15 32 0
133 13 16 33 0
138 13 21 38 0
139 14 15 39 0
140 14 16 40 0
145 14 21 45 0
146 15 16 46 0
151 15 21 51 0
156 16 21 56 0
157 -17 -18 -57 0
158 -17 -19 -58 0
159 -17 -20 -59 0
161 -18 -19 -61 0
162 -18 -20 -62 0
164 -19 -20 -64 0
170 -22 -26 -34 0
170 22 26 34 0
171 -22 -27 -35 0
171 22 27 35 0
172 -22 -28 -36 0
172 22 28 36 0
173 -22 -29 -37 0
173 22 29 37 0
174 -22 -30 -38 0
177 -23 -26 -41 0
177 23 26 41 0
178 -23 -27 -42 0
178 23 27 42 0
179 -23 -28 -43 0
179 23 28 43 0
180 -23 -29 -44 0
180 23 29 44 0
181 -23 -30 -45 0
183 -24 -26 -47 0
183 24 26 47 0
184 -24 -27 -48 0
184 24 27 48 0
185 -24 -28 -49 0
185 24 28 49 0
186 -24 -29 -50 0
186 24 29 50 0
187 -24 -30 -51 0
188 -25 -26 -52 0
188 25 26 52 0
189 -25 -27 -53 0
189 25 27 53 0
190 -25 -28 -54 0
190 25 28 54 0
191 -25 -29 -55 0
191 25 29 55 0
192 -25 -30 -56 0
193 -26 -27 -57 0
193 26 27 57 0
194 -26 -28 -58 0
194 26 28 58 0
195 -26 -29 -59 0
195 26 29 59 0
196 -26 -30 -60 0
196 26 30 60 0
197 -27 -28 -61 0
197 27 28 61 0
198 -27 -29 -62 0
198 27 29 62 0
199 -27 -30 -63 0
199 27 30 63 0
200 -28 -29 -64 0
200 28 29 64 0
201 -28 -30 -65 0
201 28 30 65 0
202 -29 -30 -66 0
202 29 30 66 0
205 -31 -34 -41 0
205 31 34 41 0
206 -31 -35 -42 0
206 31 35 42 0
207 -31 -36 -43 0
207 31 36 43 0
208 -31 -37 -44 0
208 31 37 44 0
209 -31 -38 -45 0
209 31 38 45 0
211 -32 -34 -47 0
211 32 34 47 0
212 -32 -35 -48 0
212 32 35 48 0
213 -32 -36 -49 0
213 32 36 49 0
214 -32 -37 -50 0
214 32 37 50 0
215 -32 -38 -51 0
216 -33 -34 -52 0
216 33 34 52 0
217 -33 -35 -53 0
217 33 35 53 0
218 -33 -36 -54 0
218 33 36 54 0
219 -33 -37 -55 0
219 33 37 55 0
220 -33 -38 -56 0
221 -34 -35 -57 0
221 34 35 57 0
222 -34 -36 -58 0
222 34 36 58 0
223 -34 -37 -59 0
223 34 37 59 0
224 -34 -38 -60 0
224 34 38 60 0
225 -35 -36 -61 0
225 35 36 61 0
226 -35 -37 -62 0
226 35 37 62 0
227 -35 -38 -63 0
227 35 38 63 0
228 -36 -37 -64 0
228 36 37 64 0
229 -36 -38 -65 0
229 36 38 65 0
230 -37 -38 -66 0
230 37 38 66 0
232 -39 -41 -47 0
232 39 41 47 0
233 -39 -42 -48 0
233 39 42 48 0
234 -39 -43 -49 0
234 39 43 49 0
235 -39 -44 -50 0
235 39 44 50 0
236 -39 -45 -51 0
237 -40 -41 -52 0
237 40 41 52 0
238 -40 -42 -53 0
238 40 42 53 0
239 -40 -43 -54 0
239 40 43 54 0
240 -40 -44 -55 0
240 40 44 55 0
241 -40 -45 -56 0
242 -41 -42 -57 0
242 41 42 57 0
243 -41 -43 -58 0
243 41 43 58 0
244 -41 -44 -59 0
244 41 44 59 0
245 -41 -45 -60 0
245 41 45 60 0
246 -42 -43 -61 0
246 42 43 61 0
247 -42 -44 -62 0
247 42 44 62 0
248 -42 -45 -63 0
248 42 45 63 0
249 -43 -44 -64 0
249 43 44 64 0
250 -43 -45 -65 0
250 43 45 65 0
251 -44 -45 -66 0
251 44 45 66 0
252 -46 -47 -52 0
252 46 47 52 0
253 -46 -48 -53 0
253 46 48 53 0
254 -46 -49 -54 0
254 46 49 54 0
255 -46 -50 -55 0
255 46 50 55 0
256 -46 -51 -56 0
257 -47 -48 -57 0
257 47 48 57 0
258 -47 -49 -58 0
258 47 49 58 0
259 -47 -50 -59 0
259 47 50 59 0
260 -47 -51 -60 0
260 47 51 60 0
261 -48 -49 -61 0
261 48 49 61 0
262 -48 -50 -62 0
262 48 50 62 0
263 -48 -51 -63 0
263 48 51 63 0
264 -49 -50 -64 0
264 49 50 64 0
265 -49 -51 -65 0
265 49 51 65 0
266 -50 -51 -66 0
266 50 51 66 0
267 -52 -53 -57 0
267 52 53 57 0
268 -52 -54 -58 0
268 52 54 58 0
269 -52 -55 -59 0
269 52 55 59 0
270 -52 -56 -60 0
270 52 56 60 0
271 -53 -54 -61 0
271 53 54 61 0
272 -53 -55 -62 0
272 53 55 62 0
273 -53 -56 -63 0
273 53 56 63 0
274 -54 -55 -64 0
274 54 55 64 0
275 -54 -56 -65 0
275 54 56 65 0
276 -55 -56 -66 0
276 55 56 66 0
279 -57 -60 -63 0
281 -58 -60 -65 0
282 -59 -60 -66 0
284 -61 -63 -65 0
284 61 63 65 0
285 -62 -63 -66 0
286 -64 -65 -66 0
-77 -140 -258 -285 0
-77 -140 -259 -284 0
-77 -140 -261 -282 0
-77 -140 -262 -281 0
-77 -145 -257 -274 0
-77 -145 -258 -272 0
-77 -156 -247 -258 0
-77 -157 -234 -276 0
-77 -157 -235 -275 0
-77 -157 -236 -274 0
-77 -157 -239 -266 0
-77 -157 -240 -265 0
-77 -157 -241 -264 0
-77 -157 -249 -256 0
-77 -157 -250 -255 0
-77 -157 -251 -254 0
-77 -158 -233 -276 0
-77 -158 -235 -273 0
-77 -158 -236 -272 0
-77 -158 -238 -266 0
-77 -158 -240 -263 0
-77 -158 -241 -262 0
-77 -158 -247 -256 0
-77 -158 -248 -255 0
-77 -158 -251 -253 0
-77 -159 -233 -275 0
-77 -159 -234 -273 0
-77 -159 -236 -271 0
-77 -159 -238 -265 0
-77 -159 -239 -263 0
-77 -159 -241 -261 0
-77 -159 -246 -256 0
-77 -159 -248 -254 0
-77 -159 -250 -253 0
-77 -161 -232 -276 0
-77 -161 -235 -270 0
-77 -161 -236 -269 0
-77 -161 -237 -266 0
-77 -161 -240 -260 0
-77 -161 -241 -259 0
-77 -161 -244 -256 0
-77 -161 -245 -255 0
-77 -161 -251 -252 0
-77 -162 -232 -275 0
-77 -162 -234 -270 0
-77 -162 -236 -268 0
-77 -162 -237 -265 0
-77 -162 -239 -260 0
-77 -162 -241 -258 0
-77 -162 -243 -256 0
-77 -162 -245 -254 0
-77 -162 -250 -252 0
-77 -164 -232 -273 0
-77 -164 -233 -270 0
-77 -164 -236 -267 0
-77 -164 -237 -263 0
-77 -164 -238 -260 0
-77 -164 -241 -257 0
-77 -164 -242 -256 0
-77 -164 -245 -253 0
-77 -164 -248 -252 0
-78 -132 -268 -285 0
-78 -132 -269 -284 0
-78 -132 -271 -282 0
-78 -132 -272 -281 0
-78 -133 -258 -285 0
-78 -133 -259 -284 0
-78 -133 -261 -282 0
-78 -138 -257 -274 0
-78 -138 -264 -267 0
-78 -146 -226 -281 0
-78 -151 -221 -274 0
-78 -151 -225 -269 0
-78 -151 -226 -268 0
-78 -151 -228 -267 0
-78 -156 -221 -264 0
-78 -156 -222 -262 0
-78 -157 -213 -276 0
-78 -157 -214 -275 0
-78 -157 -215 -274 0
-78 -157 -218 -266 0
-78 -157 -219 -265 0
-78 -157 -220 -264 0
-78 -157 -228 -256 0
-78 -157 -229 -255 0
-78 -157 -230 -254 0
-78 -158 -212 -276 0
-78 -158 -214 -273 0
-78 -158 -215 -272 0
-78 -158 -217 -266 0
-78 -158 -219 -263 0
-78 -158 -220 -262 0
-78 -158 -226 -256 0
-78 -158 -227 -255 0
-78 -158 -230 -253 0
-78 -159 -212 -275 0
-78 -159 -213 -273 0
-78 -159 -215 -271 0
-78 -159 -217 -265 0
-78 -159 -218 -263 0
-78 -159 -220 -261 0
-78 -159 -225 -256 0
-78 -159 -227 -254 0
-78 -159 -229 -253 0
-78 -161 -211 -276 0
-78 -161 -214 -270 0
-78 -161 -215 -269 0
-78 -161 -216 -266 0
-78 -161 -219 -260 0
-78 -161 -220 -259 0
-78 -161 -223 -256 0
-78 -161 -224 -255 0
-78 -161 -230 -252 0
-78 -162 -211 -275 0
-78 -162 -213 -270 0
-78 -162 -215 -268 0
-78 -162 -216 -265 0
-78 -162 -218 -260 0
-78 -162 -220 -258 0
-78 -162 -222 -256 0
-78 -162 -224 -254 0
-78 -162 -229 -252 0
-78 -164 -211 -273 0
-78 -164 -212 -270 0
-78 -164 -215 -267 0
-78 -164 -216 -263 0
-78 -164 -217 -260 0
-78 -164 -220 -257 0
-78 -164 -221 -256 0
-78 -164 -224 -253 0
-78 -164 -227 -252 0
-79 -131 -269 -284 0
-79 -131 -271 -282 0
-79 -131 -272 -281 0
-79 -133 -244 -284 0
-79 -138 -242 -274 0
-79 -138 -243 -272 0
-79 -138 -247 -268 0
-79 -140 -223 -284 0
-79 -140 -226 -281 0
-79 -145 -221 -274 0
-79 -145 -222 -272 0
-79 -145 -226 -268 0
-79 -156 -222 -247 0
-79 -156 -228 -242 0
-79 -157 -207 -276 0
-79 -157 -208 -275 0
-79 -157 -209 -274 0
-79 -157 -218 -251 0
-79 -157 -219 -250 0
-79 -157 -220 -249 0
-79 -157 -228 -241 0
-79 -157 -229 -240 0
-79 -157 -230 -239 0
-79 -158 -206 -276 0
-79 -158 -208 -273 0
-79 -158 -209 -272 0
-79 -158 -217 -251 0
-79 -158 -219 -248 0
-79 -158 -220 -247 0
-79 -158 -226 -241 0
-79 -158 -227 -240 0
-79 -158 -230 -238 0
-79 -159 -206 -275 0
-79 -159 -207 -273 0
-79 -159 -209 -271 0
-79 -159 -217 -250 0
-79 -159 -218 -248 0
-79 -159 -220 -246 0
-79 -159 -225 -241 0
-79 -159 -227 -239 0
-79 -159 -229 -238 0
-79 -161 -205 -276 0
-79 -161 -208 -270 0
-79 -161 -209 -269 0
-79 -161 -216 -251 0
-79 -161 -219 -245 0
-79 -161 -220 -244 0
-79 -161 -223 -241 0
-79 -161 -224 -240 0
-79 -161 -230 -237 0
-79 -162 -205 -275 0
-79 -162 -207 -270 0
-79 -162 -209 -268 0
-79 -162 -216 -250 0
-79 -162 -218 -245 0
-79 -162 -220 -243 0
-79 -162 -222 -241 0
-79 -162 -224 -239 0
-79 -162 -229 -237 0
-79 -164 -205 -273 0
-79 -164 -206 -270 0
-79 -164 -209 -267 0
-79 -164 -216 -248 0
-79 -164 -217 -245 0
-79 -164 -220 -242 0
-79 -164 -221 -241 0
-79 -164 -224 -238 0
-79 -164 -227 -237 0
-80 -131 -261 -282 0
-80 -131 -264 -279 0
-80 -132 -244 -284 0
-80 -132 -249 -279 0
-80 -139 -222 -285 0
-80 -139 -223 -284 0
-80 -139 -226 -281 0
-80 -145 -222 -262 0
-80 -145 -223 -261 0
-80 -145 -226 -258 0
-80 -145 -228 -257 0
-80 -151 -221 -249 0
-80 -157 -207 -266 0
-80 -157 -208 -265 0
-80 -157 -209 -264 0
-80 -157 -213 -251 0
-80 -157 -214 -250 0
-80 -157 -215 -249 0
-80 -157 -228 -236 0
-80 -157 -229 -235 0
-80 -157 -230 -234 0
-80 -158 -206 -266 0
-80 -158 -208 -263 0
-80 -158 -209 -262 0
-80 -158 -212 -251 0
-80 -158 -214 -248 0
-80 -158 -215 -247 0
-80 -158 -226 -236 0
-80 -158 -227 -235 0
-80 -158 -230 -233 0
-80 -159 -206 -265 0
-80 -159 -207 -263 0
-80 -159 -209 -261 0
-80 -159 -212 -250 0
-80 -159 -213 -248 0
-80 -159 -215 -246 0
-80 -159 -225 -236 0
-80 -159 -227 -234 0
-80 -159 -229 -233 0
-80 -161 -205 -266 0
-80 -161 -208 -260 0
-80 -161 -209 -259 0
-80 -161 -211 -251 0
-80 -161 -214 -245 0
-80 -161 -215 -244 0
-80 -161 -223 -236 0
-80 -161 -224 -235 0
-80 -161 -230 -232 0
-80 -162 -205 -265 0
-80 -162 -207 -260 0
-80 -162 -209 -258 0
-80 -162 -211 -250 0
-80 -162 -213 -245 0
-80 -162 -215 -243 0
-80 -162 -222 -236 0
-80 -162 -224 -234 0
-80 -162 -229 -232 0
-80 -164 -205 -263 0
-80 -164 -206 -260 0
-80 -164 -209 -257 0
-80 -164 -211 -248 0
-80 -164 -212 -245 0
-80 -164 -215 -242 0
-80 -164 -221 -236 0
-80 -164 -224 -233 0
-80 -164 -227 -232 0
-86 -124 -268 -285 0
-86 -124 -269 -284 0
-86 -125 -258 -285 0
-86 -125 -259 -284 0
-86 -130 -258 -272 0
-86 -130 -261 -269 0
-86 -130 -262 -268 0
-86 -130 -264 -267 0
-86 -146 -197 -282 0
-86 -146 -198 -281 0
-86 -151 -193 -274 0
-86 -151 -197 -269 0
-86 -156 -197 -259 0
-86 -157 -185 -276 0
-86 -157 -186 -275 0
-86 -157 -187 -274 0
-86 -157 -190 -266 0
-86 -157 -191 -265 0
-86 -157 -192 -264 0
-86 -157 -200 -256 0
-86 -157 -201 -255 0
-86 -157 -202 -254 0
-86 -158 -184 -276 0
-86 -158 -186 -273 0
-86 -158 -187 -272 0
-86 -158 -189 -266 0
-86 -158 -191 -263 0
-86 -158 -192 -262 0
-86 -158 -198 -256 0
-86 -158 -199 -255 0
-86 -158 -202 -253 0
-86 -159 -184 -275 0
-86 -159 -185 -273 0
-86 -159 -187 -271 0
-86 -159 -189 -265 0
-86 -159 -190 -263 0
-86 -159 -192 -261 0
-86 -159 -197 -256 0
-86 -159 -199 -254 0
-86 -159 -201 -253 0
-86 -161 -183 -276 0
-86 -161 -186 -270 0
-86 -161 -187 -269 0
-86 -161 -188 -266 0
-86 -161 -191 -260 0
-86 -161 -192 -259 0
-86 -161 -195 -256 0
-86 -161 -196 -255 0
-86 -161 -202 -252 0
-86 -162 -183 -275 0
-86 -162 -185 -270 0
-86 -162 -187 -268 0
-86 -162 -188 -265 0
-86 -162 -190 -260 0
-86 -162 -192 -258 0
-86 -162 -194 -256 0
-86 -162 -196 -254 0
-86 -162 -201 -252 0
-86 -164 -183 -273 0
-86 -164 -184 -270 0
-86 -164 -187 -267 0
-86 -164 -188 -263 0
-86 -164 -189 -260 0
-86 -164 -192 -257 0
-86 -164 -193 -256 0
-86 -164 -196 -253 0
-86 -164 -199 -252 0
-87 -123 -272 -281 0
-87 -125 -243 -285 0
-87 -125 -246 -282 0
-87 -125 -247 -281 0
-87 -130 -242 -274 0
-87 -130 -243 -272 0
-87 -130 -246 -269 0
-87 -130 -247 -268 0
-87 -130 -249 -267 0
-87 -140 -197 -282 0
-87 -140 -198 -281 0
-87 -140 -200 -279 0
-87 -145 -197 -269 0
-87 -145 -200 -267 0
-87 -156 -197 -244 0
-87 -157 -179 -276 0
-87 -157 -180 -275 0
-87 -157 -181 -274 0
-87 -157 -190 -251 0
-87 -157 -191 -250 0
-87 -157 -192 -249 0
-87 -157 -200 -241 0
-87 -157 -201 -240 0
-87 -157 -202 -239 0
-87 -158 -178 -276 0
-87 -158 -180 -273 0
-87 -158 -181 -272 0
-87 -158 -189 -251 0
-87 -158 -191 -248 0
-87 -158 -192 -247 0
-87 -158 -198 -241 0
-87 -158 -199 -240 0
-87 -158 -202 -238 0
-87 -159 -178 -275 0
-87 -159 -179 -273 0
-87 -159 -181 -271 0
-87 -159 -189 -250 0
-87 -159 -190 -248 0
-87 -159 -192 -246 0
-87 -159 -197 -241 0
-87 -159 -199 -239 0
-87 -159 -201 -238 0
-87 -161 -177 -276 0
-87 -161 -180 -270 0
-87 -161 -181 -269 0
-87 -161 -188 -251 0
-87 -161 -191 -245 0
-87 -161 -192 -244 0
-87 -161 -195 -241 0
-87 -161 -196 -240 0
-87 -161 -202 -237 0
-87 -162 -177 -275 0
-87 -162 -179 -270 0
-87 -162 -181 -268 0
-87 -162 -188 -250 0
-87 -162 -190 -245 0
-87 -162 -192 -243 0
-87 -162 -194 -241 0
-87 -162 -196 -239 0
-87 -162 -201 -237 0
-87 -164 -177 -273 0
-87 -164 -178 -270 0
-87 -164 -181 -267 0
-87 -164 -188 -248 0
-87 -164 -189 -245 0
-87 -164 -192 -242 0
-87 -164 -193 -241 0
-87 -164 -196 -238 0
-87 -164 -199 -237 0
-88 -123 -259 -284 0
-88 -130 -244 -261 0
-88 -130 -246 -259 0
-88 -130 -249 -257 0
-88 -139 -193 -286 0
-88 -139 -197 -282 0
-88 -139 -198 -281 0
-88 -145 -194 -262 0
-88 -145 -197 -259 0
-88 -145 -200 -257 0
-88 -151 -197 -244 0
-88 -151 -198 -243 0
-88 -157 -179 -266 0
-88 -157 -180 -265 0
-88 -157 -181 -264 0
-88 -157 -185 -251 0
-88 -157 -186 -250 0
-88 -157 -187 -249 0
-88 -157 -200 -236 0
-88 -157 -201 -235 0
-88 -157 -202 -234 0
-88 -158 -178 -266 0
-88 -158 -180 -263 0
-88 -158 -181 -262 0
-88 -158 -184 -251 0
-88 -158 -186 -248 0
-88 -158 -187 -247 0
-88 -158 -198 -236 0
-88 -158 -199 -235 0
-88 -158 -202 -233 0
-88 -159 -178 -265 0
-88 -159 -179 -263 0
-88 -159 -181 -261 0
-88 -159 -184 -250 0
-88 -159 -185 -248 0
-88 -159 -187 -246 0
-88 -159 -197 -236 0
-88 -159 -199 -234 0
-88 -159 -201 -233 0
-88 -161 -177 -266 0
-88 -161 -180 -260 0
-88 -161 -181 -259 0
-88 -161 -183 -251 0
-88 -161 -186 -245 0
-88 -161 -187 -244 0
-88 -161 -195 -236 0
-88 -161 -196 -235 0
-88 -161 -202 -232 0
-88 -162 -177 -265 0
-88 -162 -179 -260 0
-88 -162 -181 -258 0
-88 -162 -183 -250 0
-88 -162 -185 -245 0
-88 -162 -187 -243 0
-88 -162 -194 -236 0
-88 -162 -196 -234 0
-88 -162 -201 -232 0
-88 -164 -177 -263 0
-88 -164 -178 -260 0
-88 -164 -181 -257 0
-88 -164 -183 -248 0
-88 -164 -184 -245 0
-88 -164 -187 -242 0
-88 -164 -193 -236 0
-88 -164 -196 -233 0
-88 -164 -199 -232 0
-94 -122 -268 -285 0
-94 -122 -271 -282 0
-94 -122 -272 -281 0
-94 -125 -222 -285 0
-94 -125 -223 -284 0
-94 -125 -225 -282 0
-94 -130 -225 -269 0
-94 -138 -193 -274 0
-94 -138 -197 -269 0
-94 -138 -200 -267 0
-94 -156 -193 -228 0
-94 -156 -194 -226 0
-94 -157 -172 -276 0
-94 -157 -173 -275 0
-94 -157 -174 -274 0
-94 -157 -190 -230 0
-94 -157 -191 -229 0
-94 -157 -192 -228 0
-94 -157 -200 -220 0
-94 -157 -201 -219 0
-94 -157 -202 -218 0
-94 -158 -171 -276 0
-94 -158 -173 -273 0
-94 -158 -174 -272 0
-94 -158 -189 -230 0
-94 -158 -191 -227 0
-94 -158 -192 -226 0
-94 -158 -198 -220 0
-94 -158 -199 -219 0
-94 -158 -202 -217 0
-94 -159 -171 -275 0
-94 -159 -172 -273 0
-94 -159 -174 -271 0
-94 -159 -189 -229 0
-94 -159 -190 -227 0
-94 -159 -192 -225 0
-94 -159 -197 -220 0
-94 -159 -199 -218 0
-94 -159 -201 -217 0
-94 -161 -170 -276 0
-94 -161 -173 -270 0
-94 -161 -174 -269 0
-94 -161 -188 -230 0
-94 -161 -191 -224 0
-94 -161 -192 -223 0
-94 -161 -195 -220 0
-94 -161 -196 -219 0
-94 -161 -202 -216 0
-94 -162 -170 -275 0
-94 -162 -172 -270 0
-94 -162 -174 -268 0
-94 -162 -188 -229 0
-94 -162 -190 -224 0
-94 -162 -192 -222 0
-94 -162 -194 -220 0
-94 -162 -196 -218 0
-94 -162 -201 -216 0
-94 -164 -170 -273 0
-94 -164 -171 -270 0
-94 -164 -174 -267 0
-94 -164 -188 -227 0
-94 -164 -189 -224 0
-94 -164 -192 -221 0
-94 -164 -193 -220 0
-94 -164 -196 -217 0
-94 -164 -199 -216 0
-95 -122 -262 -281 0
-95 -124 -221 -286 0
-95 -124 -222 -285 0
-95 -124 -223 -284 0
-95 -130 -221 -264 0
-95 -130 -222 -262 0
-95 -130 -226 -258 0
-95 -132 -195 -284 0
-95 -138 -197 -259 0
-95 -138 -200 -257 0
-95 -151 -197 -223 0
-95 -151 -198 -222 0
-95 -151 -200 -221 0
-95 -157 -172 -266 0
-95 -157 -173 -265 0
-95 -157 -174 -264 0
-95 -157 -185 -230 0
-95 -157 -186 -229 0
-95 -157 -187 -228 0
-95 -157 -200 -215 0
-95 -157 -201 -214 0
-95 -157 -202 -213 0
-95 -158 -171 -266 0
-95 -158 -173 -263 0
-95 -158 -174 -262 0
-95 -158 -184 -230 0
-95 -158 -186 -227 0
-95 -158 -187 -226 0
-95 -158 -198 -215 0
-95 -158 -199 -214 0
-95 -158 -202 -212 0
-95 -159 -171 -265 0
-95 -159 -172 -263 0
-95 -159 -174 -261 0
-95 -159 -184 -229 0
-95 -159 -185 -227 0
-95 -159 -187 -225 0
-95 -159 -197 -215 0
-95 -159 -199 -213 0
-95 -159 -201 -212 0
-95 -161 -170 -266 0
-95 -161 -173 -260 0
-95 -161 -174 -259 0
-95 -161 -183 -230 0
-95 -161 -186 -224 0
-95 -161 -187 -223 0
-95 -161 -195 -215 0
-95 -161 -196 -214 0
-95 -161 -202 -211 0
-95 -162 -170 -265 0
-95 -162 -172 -260 0
-95 -162 -174 -258 0
-95 -162 -183 -229 0
-95 -162 -185 -224 0
-95 -162 -187 -222 0
-95 -162 -194 -215 0
-95 -162 -196 -213 0
-95 -162 -201 -211 0
-95 -164 -170 -263 0
-95 -164 -171 -260 0
-95 -164 -174 -257 0
-95 -164 -183 -227 0
-95 -164 -184 -224 0
-95 -164 -187 -221 0
-95 -164 -193 -215 0
-95 -164 -196 -212 0
-95 -164 -199 -211 0
-101 -131 -193 -286 0
-101 -131 -194 -285 0
-101 -131 -195 -284 0
-101 -131 -197 -282 0
-101 -138 -193 -249 0
-101 -138 -197 -244 0
-101 -138 -200 -242 0
-101 -145 -193 -228 0
-101 -145 -197 -223 0
-101 -145 -200 -221 0
-101 -157 -172 -251 0
-101 -157 -173 -250 0
-101 -157 -174 -249 0
-101 -157 -179 -230 0
-101 -157 -180 -229 0
-101 -157 -181 -228 0
-101 -157 -200 -209 0
-101 -157 -201 -208 0
-101 -157 -202 -207 0
-101 -158 -171 -251 0
-101 -158 -173 -248 0
-101 -158 -174 -247 0
-101 -158 -178 -230 0
-101 -158 -180 -227 0
-101 -158 -181 -226 0
-101 -158 -198 -209 0
-101 -158 -199 -208 0
-101 -158 -202 -206 0
-101 -159 -171 -250 0
-101 -159 -172 -248 0
-101 -159 -174 -246 0
-101 -159 -178 -229 0
-101 -159 -179 -227 0
-101 -159 -181 -225 0
-101 -159 -197 -209 0
-101 -159 -199 -207 0
-101 -159 -201 -206 0
-101 -161 -170 -251 0
-101 -161 -173 -245 0
-101 -161 -174 -244 0
-101 -161 -177 -230 0
-101 -161 -180 -224 0
-101 -161 -181 -223 0
-101 -161 -195 -209 0
-101 -161 -196 -208 0
-101 -161 -202 -205 0
-101 -162 -170 -250 0
-101 -162 -172 -245 0
-101 -162 -174 -243 0
-101 -162 -177 -229 0
-101 -162 -179 -224 0
-101 -162 -181 -222 0
-101 -162 -194 -209 0
-101 -162 -196 -207 0
-101 -162 -201 -205 0
-101 -164 -170 -248 0
-101 -164 -171 -245 0
-101 -164 -174 -242 0
-101 -164 -177 -227 0
-101 -164 -178 -224 0
-101 -164 -181 -221 0
-101 -164 -193 -209 0
-101 -164 -196 -206 0
-101 -164 -199 -205 0
-112 -122 -234 -276 0
-112 -122 -235 -275 0
-112 -122 -236 -274 0
-112 -122 -239 -266 0
-112 -122 -240 -265 0
-112 -122 -241 -264 0
-112 -122 -249 -256 0
-112 -122 -250 -255 0
-112 -122 -251 -254 0
-112 -123 -213 -276 0
-112 -123 -214 -275 0
-112 -123 -215 -274 0
-112 -123 -218 -266 0
-112 -123 -219 -265 0
-112 -123 -220 -264 0
-112 -123 -228 -256 0
-112 -123 -229 -255 0
-112 -123 -230 -254 0
-112 -124 -207 -276 0
-112 -124 -208 -275 0
-112 -124 -209 -274 0
-112 -124 -218 -251 0
-112 -124 -219 -250 0
-112 -124 -220 -249 0
-112 -124 -228 -241 0
-112 -124 -229 -240 0
-112 -124 -230 -239 0
-112 -125 -207 -266 0
-112 -125 -208 -265 0
-112 -125 -209 -264 0
-112 -125 -213 -251 0
-112 -125 -214 -250 0
-112 -125 -215 -249 0
-112 -125 -228 -236 0
-112 -125 -229 -235 0
-112 -125 -230 -234 0
-112 -130 -207 -255 0
-112 -130 -208 -254 0
-112 -130 -213 -240 0
-112 -130 -214 -239 0
-112 -130 -218 -235 0
-112 -130 -219 -234 0
-112 -131 -185 -276 0
-112 -131 -186 -275 0
-112 -131 -187 -274 0
-112 -131 -190 -266 0
-112 -131 -191 -265 0
-112 -131 -192 -264 0
-112 -131 -200 -256 0
-112 -131 -201 -255 0
-112 -131 -202 -254 0
-112 -132 -179 -276 0
-112 -132 -180 -275 0
-112 -132 -181 -274 0
-112 -132 -190 -251 0
-112 -132 -191 -250 0
-112 -132 -192 -249 0
-112 -132 -200 -241 0
-112 -132 -201 -240 0
-112 -132 -202 -239 0
-112 -133 -179 -266 0
-112 -133 -180 -265 0
-112 -133 -181 -264 0
-112 -133 -186 -250 0
-112 -133 -187 -249 0
-112 -133 -200 -236 0
-112 -133 -201 -235 0
-112 -133 -202 -234 0
-112 -138 -179 -255 0
-112 -138 -185 -240 0
-112 -138 -186 -239 0
-112 -138 -190 -235 0
-112 -138 -191 -234 0
-112 -139 -172 -276 0
-112 -139 -173 -275 0
-112 -139 -174 -274 0
-112 -139 -190 -230 0
-112 -139 -191 -229 0
-112 -139 -192 -228 0
-112 -139 -200 -220 0
-112 -139 -201 -219 0
-112 -139 -202 -218 0
-112 -140 -173 -265 0
-112 -140 -174 -264 0
-112 -140 -185 -230 0
-112 -140 -186 -229 0
-112 -140 -187 -228 0
-112 -140 -200 -215 0
-112 -140 -201 -214 0
-112 -140 -202 -213 0
-112 -145 -172 -255 0
-112 -145 -173 -254 0
-112 -145 -185 -219 0
-112 -145 -186 -218 0
-112 -145 -190 -214 0
-112 -145 -191 -213 0
-112 -146 -173 -250 0
-112 -146 -174 -249 0
-112 -146 -179 -230 0
-112 -146 -181 -228 0
-112 -146 -200 -209 0
-112 -146 -201 -208 0
-112 -146 -202 -207 0
-112 -151 -172 -240 0
-112 -151 -173 -239 0
-112 -151 -179 -219 0
-112 -151 -180 -218 0
-112 -151 -190 -208 0
-112 -151 -191 -207 0
-112 -156 -172 -235 0
-112 -156 -173 -234 0
-112 -156 -179 -214 0
-112 -156 -180 -213 0
-112 -156 -185 -208 0
-112 -156 -186 -207 0
-113 -122 -233 -276 0
-113 -122 -235 -273 0
-113 -122 -236 -272 0
-113 -122 -238 -266 0
-113 -122 -240 -263 0
-113 -122 -241 -262 0
-113 -122 -247 -256 0
-113 -122 -248 -255 0
-113 -122 -251 -253 0
-113 -123 -212 -276 0
-113 -123 -214 -273 0
-113 -123 -215 -272 0
-113 -123 -217 -266 0
-113 -123 -219 -263 0
-113 -123 -220 -262 0
-113 -123 -226 -256 0
-113 -123 -227 -255 0
-113 -123 -230 -253 0
-113 -124 -206 -276 0
-113 -124 -208 -273 0
-113 -124 -209 -272 0
-113 -124 -217 -251 0
-113 -124 -219 -248 0
-113 -124 -220 -247 0
-113 -124 -226 -241 0
-113 -124 -227 -240 0
-113 -124 -230 -238 0
-113 -125 -206 -266 0
-113 -125 -208 -263 0
-113 -125 -209 -262 0
-113 -125 -212 -251 0
-113 -125 -214 -248 0
-113 -125 -215 -247 0
-113 -125 -226 -236 0
-113 -125 -230 -233 0
-113 -130 -206 -255 0
-113 -130 -208 -253 0
-113 -130 -212 -240 0
-113 -130 -214 -238 0
-113 -130 -217 -235 0
-113 -130 -219 -233 0
-113 -131 -184 -276 0
-113 -131 -186 -273 0
-113 -131 -187 -272 0
-113 -131 -189 -266 0
-113 -131 -191 -263 0
-113 -131 -192 -262 0
-113 -131 -198 -256 0
-113 -131 -199 -255 0
-113 -131 -202 -253 0
-113 -132 -178 -276 0
-113 -132 -180 -273 0
-113 -132 -181 -272 0
-113 -132 -189 -251 0
-113 -132 -191 -248 0
-113 -132 -192 -247 0
-113 -132 -198 -241 0
-113 -132 -199 -240 0
-113 -132 -202 -238 0
-113 -133 -178 -266 0
-113 -133 -180 -263 0
-113 -133 -181 -262 0
-113 -133 -184 -251 0
-113 -133 -186 -248 0
-113 -133 -187 -247 0
-113 -133 -198 -236 0
-113 -133 -199 -235 0
-113 -133 -202 -233 0
-113 -138 -178 -255 0
-113 -138 -180 -253 0
-113 -138 -186 -238 0
-113 -139 -171 -276 0
-113 -139 -173 -273 0
-113 -139 -174 -272 0
-113 -139 -189 -230 0
-113 -139 -191 -227 0
-113 -139 -192 -226 0
-113 -139 -198 -220 0
-113 -139 -199 -219 0
-113 -139 -202 -217 0
-113 -140 -171 -266 0
-113 -140 -173 -263 0
-113 -140 -174 -262 0
-113 -140 -184 -230 0
-113 -140 -186 -227 0
-113 -140 -187 -226 0
-113 -140 -198 -215 0
-113 -140 -199 -214 0
-113 -140 -202 -212 0
-113 -145 -171 -255 0
-113 -145 -173 -253 0
-113 -145 -184 -219 0
-113 -145 -186 -217 0
-113 -145 -189 -214 0
-113 -145 -191 -212 0
-113 -146 -171 -251 0
-113 -146 -173 -248 0
-113 -146 -174 -247 0
-113 -146 -178 -230 0
-113 -146 -180 -227 0
-113 -146 -181 -226 0
-113 -146 -198 -209 0
-113 -146 -202 -206 0
-113 -151 -171 -240 0
-113 -151 -178 -219 0
-113 -151 -180 -217 0
-113 -151 -189 -208 0
-113 -156 -173 -233 0
-113 -156 -178 -214 0
-113 -156 -180 -212 0
-113 -156 -184 -208 0
-114 -122 -233 -275 0
-114 -122 -234 -273 0
-114 -122 -236 -271 0
-114 -122 -238 -265 0
-114 -122 -239 -263 0
-114 -122 -241 -261 0
-114 -122 -246 -256 0
-114 -122 -248 -254 0
-114 -122 -250 -253 0
-114 -123 -212 -275 0
-114 -123 -213 -273 0
-114 -123 -215 -271 0
-114 -123 -217 -265 0
-114 -123 -218 -263 0
-114 -123 -220 -261 0
-114 -123 -225 -256 0
-114 -123 -227 -254 0
-114 -123 -229 -253 0
-114 -124 -206 -275 0
-114 -124 -207 -273 0
-114 -124 -209 -271 0
-114 -124 -217 -250 0
-114 -124 -218 -248 0
-114 -124 -220 -246 0
-114 -124 -225 -241 0
-114 -124 -227 -239 0
-114 -124 -229 -238 0
-114 -125 -206 -265 0
-114 -125 -207 -263 0
-114 -125 -209 -261 0
-114 -125 -212 -250 0
-114 -125 -213 -248 0
-114 -125 -215 -246 0
-114 -125 -225 -236 0
-114 -125 -227 -234 0
-114 -130 -206 -254 0
-114 -130 -207 -253 0
-114 -130 -212 -239 0
-114 -130 -213 -238 0
-114 -130 -218 -233 0
-114 -131 -184 -275 0
-114 -131 -185 -273 0
-114 -131 -187 -271 0
-114 -131 -189 -265 0
-114 -131 -190 -263 0
-114 -131 -192 -261 0
-114 -131 -197 -256 0
-114 -131 -199 -254 0
-114 -131 -201 -253 0
-114 -132 -178 -275 0
-114 -132 -179 -273 0
-114 -132 -181 -271 0
-114 -132 -189 -250 0
-114 -132 -190 -248 0
-114 -132 -192 -246 0
-114 -132 -197 -241 0
-114 -132 -199 -239 0
-114 -132 -201 -238 0
-114 -133 -178 -265 0
-114 -133 -179 -263 0
-114 -133 -181 -261 0
-114 -133 -184 -250 0
-114 -133 -185 -248 0
-114 -133 -187 -246 0
-114 -133 -197 -236 0
-114 -133 -199 -234 0
-114 -133 -201 -233 0
-114 -138 -178 -254 0
-114 -138 -184 -239 0
-114 -138 -185 -238 0
-114 -138 -189 -234 0
-114 -138 -190 -233 0
-114 -139 -171 -275 0
-114 -139 -172 -273 0
-114 -139 -174 -271 0
-114 -139 -189 -229 0
-114 -139 -190 -227 0
-114 -139 -192 -225 0
-114 -139 -197 -220 0
-114 -139 -199 -218 0
-114 -139 -201 -217 0
-114 -140 -171 -265 0
-114 -140 -174 -261 0
-114 -140 -184 -229 0
-114 -140 -185 -227 0
-114 -140 -187 -225 0
-114 -140 -197 -215 0
-114 -140 -199 -213 0
-114 -140 -201 -212 0
-114 -145 -171 -254 0
-114 -145 -172 -253 0
-114 -145 -184 -218 0
-114 -145 -189 -213 0
-114 -145 -190 -212 0
-114 -146 -171 -250 0
-114 -146 -172 -248 0
-114 -146 -174 -246 0
-114 -146 -178 -229 0
-114 -146 -179 -227 0
-114 -146 -181 -225 0
-114 -146 -197 -209 0
-114 -146 -199 -207 0
-114 -146 -201 -206 0
-114 -151 -171 -239 0
-114 -151 -172 -238 0
-114 -151 -178 -218 0
-114 -151 -179 -217 0
-114 -151 -189 -207 0
-114 -151 -190 -206 0
-114 -156 -171 -234 0
-114 -156 -172 -233 0
-114 -156 -178 -213 0
-114 -156 -179 -212 0
-114 -156 -184 -207 0
-114 -156 -185 -206 0
-115 -122 -234 -272 0
-115 -122 -235 -271 0
-115 -122 -238 -264 0
-115 -122 -239 -262 0
-115 -122 -240 -261 0
-115 -122 -246 -255 0
-115 -122 -247 -254 0
-115 -122 -249 -253 0
-115 -123 -212 -274 0
-115 -123 -214 -271 0
-115 -123 -217 -264 0
-115 -123 -218 -262 0
-115 -123 -219 -261 0
-115 -123 -225 -255 0
-115 -123 -226 -254 0
-115 -123 -228 -253 0
-115 -124 -207 -272 0
-115 -124 -217 -249 0
-115 -124 -218 -247 0
-115 -124 -219 -246 0
-115 -124 -226 -239 0
-115 -125 -206 -264 0
-115 -125 -207 -262 0
-115 -125 -214 -246 0
-115 -131 -184 -274 0
-115 -131 -185 -272 0
-115 -131 -186 -271 0
-115 -131 -189 -264 0
-115 -131 -190 -262 0
-115 -131 -191 -261 0
-115 -131 -197 -255 0
-115 -131 -198 -254 0
-115 -131 -200 -253 0
-115 -132 -179 -272 0
-115 -132 -180 -271 0
-115 -132 -190 -247 0
-115 -132 -191 -246 0
-115 -132 -197 -240 0
-115 -132 -198 -239 0
-115 -132 -200 -238 0
-115 -133 -178 -264 0
-115 -133 -179 -262 0
-115 -133 -180 -261 0
-115 -133 -186 -246 0
-115 -133 -197 -235 0
-115 -133 -198 -234 0
-115 -139 -171 -274 0
-115 -139 -172 -272 0
-115 -139 -189 -228 0
-115 -139 -190 -226 0
-115 -139 -191 -225 0
-115 -139 -197 -219 0
-115 -139 -198 -218 0
-115 -139 -200 -217 0
-115 -140 -171 -264 0
-115 -140 -172 -262 0
-115 -140 -184 -228 0
-115 -140 -186 -225 0
-115 -140 -197 -214 0
-115 -140 -198 -213 0
-115 -140 -200 -212 0
-115 -146 -171 -249 0
-115 -146 -173 -246 0
-115 -146 -178 -228 0
-115 -146 -179 -226 0
-115 -146 -180 -225 0
-115 -146 -197 -208 0
-116 -122 -232 -276 0
-116 -122 -235 -270 0
-116 -122 -236 -269 0
-116 -122 -237 -266 0
-116 -122 -240 -260 0
-116 -122 -241 -259 0
-116 -122 -244 -256 0
-116 -122 -245 -255 0
-116 -122 -251 -252 0
-116 -123 -211 -276 0
-116 -123 -214 -270 0
-116 -123 -215 -269 0
-116 -123 -216 -266 0
-116 -123 -219 -260 0
-116 -123 -220 -259 0
-116 -123 -223 -256 0
-116 -123 -224 -255 0
-116 -123 -230 -252 0
-116 -124 -205 -276 0
-116 -124 -208 -270 0
-116 -124 -209 -269 0
-116 -124 -216 -251 0
-116 -124 -219 -245 0
-116 -124 -220 -244 0
-116 -124 -223 -241 0
-116 -124 -224 -240 0
-116 -124 -230 -237 0
-116 -125 -205 -266 0
-116 -125 -208 -260 0
-116 -125 -209 -259 0
-116 -125 -211 -251 0
-116 -125 -214 -245 0
-116 -125 -215 -244 0
-116 -125 -223 -236 0
-116 -125 -224 -235 0
-116 -125 -230 -232 0
-116 -130 -205 -255 0
-116 -130 -208 -252 0
-116 -130 -214 -237 0
-116 -130 -216 -235 0
-116 -130 -219 -232 0
-116 -131 -183 -276 0
-116 -131 -186 -270 0
-116 -131 -187 -269 0
-116 -131 -188 -266 0
-116 -131 -191 -260 0
-116 -131 -192 -259 0
-116 -131 -195 -256 0
-116 -131 -196 -255 0
-116 -131 -202 -252 0
-116 -132 -177 -276 0
-116 -132 -180 -270 0
-116 -132 -181 -269 0
-116 -132 -188 -251 0
-116 -132 -191 -245 0
-116 -132 -192 -244 0
-116 -132 -195 -241 0
-116 -132 -196 -240 0
-116 -132 -202 -237 0
-116 -133 -180 -260 0
-116 -133 -181 -259 0
-116 -133 -183 -251 0
-116 -133 -186 -245 0
-116 -133 -187 -244 0
-116 -133 -195 -236 0
-116 -133 -196 -235 0
-116 -133 -202 -232 0
-116 -138 -177 -255 0
-116 -138 -180 -252 0
-116 -138 -183 -240 0
-116 -138 -186 -237 0
-116 -138 -188 -235 0
-116 -138 -191 -232 0
-116 -139 -170 -276 0
-116 -139 -173 -270 0
-116 -139 -174 -269 0
-116 -139 -188 -230 0
-116 -139 -191 -224 0
-116 -139 -192 -223 0
-116 -139 -195 -220 0
-116 -139 -196 -219 0
-116 -139 -202 -216 0
-116 -140 -170 -266 0
-116 -140 -173 -260 0
-116 -140 -174 -259 0
-116 -140 -183 -230 0
-116 -140 -186 -224 0
-116 -140 -187 -223 0
-116 -140 -195 -215 0
-116 -140 -196 -214 0
-116 -140 -202 -211 0
-116 -145 -170 -255 0
-116 -145 -173 -252 0
-116 -145 -183 -219 0
-116 -145 -188 -214 0
-116 -145 -191 -211 0
-116 -146 -170 -251 0
-116 -146 -173 -245 0
-116 -146 -174 -244 0
-116 -146 -177 -230 0
-116 -146 -180 -224 0
-116 -146 -181 -223 0
-116 -146 -195 -209 0
-116 -146 -196 -208 0
-116 -146 -202 -205 0
-116 -151 -170 -240 0
-116 -151 -173 -237 0
-116 -151 -177 -219 0
-116 -151 -180 -216 0
-116 -151 -188 -208 0
-116 -151 -191 -205 0
-116 -156 -170 -235 0
-116 -156 -173 -232 0
-116 -156 -177 -214 0
-116 -156 -180 -211 0
-116 -156 -183 -208 0
-117 -122 -232 -275 0
-117 -122 -234 -270 0
-117 -122 -236 -268 0
-117 -122 -237 -265 0
-117 -122 -239 -260 0
-117 -122 -241 -258 0
-117 -122 -243 -256 0
-117 -122 -245 -254 0
-117 -122 -250 -252 0
-117 -123 -211 -275 0
-117 -123 -213 -270 0
-117 -123 -215 -268 0
-117 -123 -216 -265 0
-117 -123 -218 -260 0
-117 -123 -220 -258 0
-117 -123 -222 -256 0
-117 -123 -224 -254 0
-117 -123 -229 -252 0
-117 -124 -205 -275 0
-117 -124 -207 -270 0
-117 -124 -209 -268 0
-117 -124 -216 -250 0
-117 -124 -218 -245 0
-117 -124 -220 -243 0
-117 -124 -222 -241 0
-117 -124 -224 -239 0
-117 -124 -229 -237 0
-117 -125 -205 -265 0
-117 -125 -207 -260 0
-117 -125 -209 -258 0
-117 -125 -211 -250 0
-117 -125 -213 -245 0
-117 -125 -215 -243 0
-117 -125 -222 -236 0
-117 -125 -224 -234 0
-117 -125 -229 -232 0
-117 -130 -205 -254 0
-117 -130 -207 -252 0
-117 -130 -211 -239 0
-117 -130 -213 -237 0
-117 -130 -216 -234 0
-117 -130 -218 -232 0
-117 -131 -183 -275 0
-117 -131 -185 -270 0
-117 -131 -187 -268 0
-117 -131 -188 -265 0
-117 -131 -190 -260 0
-117 -131 -192 -258 0
-117 -131 -194 -256 0
-117 -131 -196 -254 0
-117 -131 -201 -252 0
-117 -132 -177 -275 0
-117 -132 -179 -270 0
-117 -132 -181 -268 0
-117 -132 -188 -250 0
-117 -132 -192 -243 0
-117 -132 -194 -241 0
-117 -132 -196 -239 0
-117 -132 -201 -237 0
-117 -133 -177 -265 0
-117 -133 -179 -260 0
-117 -133 -181 -258 0
-117 -133 -183 -250 0
-117 -133 -185 -245 0
-117 -133 -187 -243 0
-117 -133 -194 -236 0
-117 -133 -196 -234 0
-117 -133 -201 -232 0
-117 -138 -179 -252 0
-117 -138 -183 -239 0
-117 -138 -190 -232 0
-117 -139 -170 -275 0
-117 -139 -172 -270 0
-117 -139 -174 -268 0
-117 -139 -188 -229 0
-117 -139 -190 -224 0
-117 -139 -192 -222 0
-117 -139 -194 -220 0
-117 -139 -196 -218 0
-117 -139 -201 -216 0
-117 -140 -170 -265 0
-117 -140 -172 -260 0
-117 -140 -174 -258 0
-117 -140 -183 -229 0
-117 -140 -185 -224 0
-117 -140 -187 -222 0
-117 -140 -194 -215 0
-117 -140 -196 -213 0
-117 -140 -201 -211 0
-117 -145 -172 -252 0
-117 -145 -183 -218 0
-117 -145 -188 -213 0
-117 -145 -190 -211 0
-117 -146 -172 -245 0
-117 -146 -174 -243 0
-117 -146 -177 -229 0
-117 -146 -179 -224 0
-117 -146 -181 -222 0
-117 -146 -194 -209 0
-117 -146 -196 -207 0
-117 -146 -201 -205 0
-117 -151 -172 -237 0
-117 -156 -170 -234 0
-117 -156 -172 -232 0
-117 -156 -179 -211 0
-117 -156 -183 -207 0
-117 -156 -185 -205 0
-118 -122 -232 -274 0
-118 -122 -234 -269 0
-118 -122 -235 -268 0
-118 -122 -237 -264 0
-118 -122 -239 -259 0
-118 -122 -249 -252 0
-118 -123 -211 -274 0
-118 -123 -213 -269 0
-118 -123 -214 -268 0
-118 -123 -216 -264 0
-118 -123 -218 -259 0
-118 -123 -219 -258 0
-118 -123 -222 -255 0
-118 -123 -223 -254 0
-118 -123 -228 -252 0
-118 -124 -207 -269 0
-118 -124 -208 -268 0
-118 -124 -216 -249 0
-118 -124 -218 -244 0
-118 -124 -223 -239 0
-118 -125 -205 -264 0
-118 -125 -207 -259 0
-118 -125 -208 -258 0
-118 -125 -211 -249 0
-118 -125 -213 -244 0
-118 -125 -223 -234 0
-118 -125 -228 -232 0
-118 -131 -183 -274 0
-118 -131 -185 -269 0
-118 -131 -186 -268 0
-118 -131 -188 -264 0
-118 -131 -190 -259 0
-118 -131 -191 -258 0
-118 -131 -194 -255 0
-118 -131 -195 -254 0
-118 -131 -200 -252 0
-118 -132 -177 -274 0
-118 -132 -179 -269 0
-118 -132 -180 -268 0
-118 -132 -188 -249 0
-118 -132 -190 -244 0
-118 -132 -191 -243 0
-118 -132 -194 -240 0
-118 -132 -195 -239 0
-118 -132 -200 -237 0
-118 -133 -179 -259 0
-118 -133 -180 -258 0
-118 -133 -183 -249 0
-118 -133 -185 -244 0
-118 -133 -186 -243 0
-118 -133 -194 -235 0
-118 -133 -195 -234 0
-118 -133 -200 -232 0
-118 -139 -172 -269 0
-118 -139 -173 -268 0
-118 -139 -188 -228 0
-118 -139 -190 -223 0
-118 -139 -191 -222 0
-118 -139 -194 -219 0
-118 -139 -195 -218 0
-118 -139 -200 -216 0
-118 -140 -173 -258 0
-118 -140 -183 -228 0
-118 -140 -185 -223 0
-118 -140 -186 -222 0
-118 -140 -195 -213 0
-118 -140 -200 -211 0
-118 -146 -170 -249 0
-118 -146 -172 -244 0
-118 -146 -177 -228 0
-118 -146 -179 -223 0
-118 -146 -180 -222 0
-118 -146 -194 -208 0
-118 -146 -200 -205 0
-119 -122 -232 -273 0
-119 -122 -233 -270 0
-119 -122 -236 -267 0
-119 -122 -237 -263 0
-119 -122 -238 -260 0
-119 -122 -241 -257 0
-119 -122 -242 -256 0
-119 -122 -245 -253 0
-119 -122 -248 -252 0
-119 -123 -211 -273 0
-119 -123 -212 -270 0
-119 -123 -215 -267 0
-119 -123 -216 -263 0
-119 -123 -217 -260 0
-119 -123 -220 -257 0
-119 -123 -221 -256 0
-119 -123 -224 -253 0
-119 -123 -227 -252 0
-119 -124 -205 -273 0
-119 -124 -206 -270 0
-119 -124 -209 -267 0
-119 -124 -216 -248 0
-119 -124 -217 -245 0
-119 -124 -220 -242 0
-119 -124 -221 -241 0
-119 -124 -224 -238 0
-119 -124 -227 -237 0
-119 -125 -205 -263 0
-119 -125 -206 -260 0
-119 -125 -209 -257 0
-119 -125 -211 -248 0
-119 -125 -212 -245 0
-119 -125 -215 -242 0
-119 -125 -221 -236 0
-119 -125 -224 -233 0
-119 -125 -227 -232 0
-119 -130 -205 -253 0
-119 -130 -206 -252 0
-119 -130 -211 -238 0
-119 -130 -212 -237 0
-119 -130 -216 -233 0
-119 -130 -217 -232 0
-119 -131 -183 -273 0
-119 -131 -184 -270 0
-119 -131 -187 -267 0
-119 -131 -188 -263 0
-119 -131 -189 -260 0
-119 -131 -192 -257 0
-119 -131 -193 -256 0
-119 -131 -196 -253 0
-119 -131 -199 -252 0
-119 -132 -177 -273 0
-119 -132 -178 -270 0
-119 -132 -181 -267 0
-119 -132 -188 -248 0
-119 -132 -189 -245 0
-119 -132 -192 -242 0
-119 -132 -193 -241 0
-119 -132 -196 -238 0
-119 -132 -199 -237 0
-119 -133 -177 -263 0
-119 -133 -178 -260 0
-119 -133 -181 -257 0
-119 -133 -183 -248 0
-119 -133 -184 -245 0
-119 -133 -187 -242 0
-119 -133 -193 -236 0
-119 -133 -196 -233 0
-119 -133 -199 -232 0
-119 -138 -177 -253 0
-119 -138 -178 -252 0
-119 -138 -183 -238 0
-119 -138 -184 -237 0
-119 -138 -188 -233 0
-119 -138 -189 -232 0
-119 -139 -170 -273 0
-119 -139 -171 -270 0
-119 -139 -174 -267 0
-119 -139 -188 -227 0
-119 -139 -189 -224 0
-119 -139 -192 -221 0
-119 -139 -193 -220 0
-119 -139 -196 -217 0
-119 -139 -199 -216 0
-119 -140 -170 -263 0
-119 -140 -171 -260 0
-119 -140 -174 -257 0
-119 -140 -183 -227 0
-119 -140 -184 -224 0
-119 -140 -187 -221 0
-119 -140 -193 -215 0
-119 -140 -196 -212 0
-119 -140 -199 -211 0
-119 -145 -170 -253 0
-119 -145 -171 -252 0
-119 -145 -183 -217 0
-119 -145 -184 -216 0
-119 -145 -188 -212 0
-119 -145 -189 -211 0
-119 -146 -170 -248 0
-119 -146 -171 -245 0
-119 -146 -174 -242 0
-119 -146 -177 -227 0
-119 -146 -178 -224 0
-119 -146 -181 -221 0
-119 -146 -193 -209 0
-119 -146 -196 -206 0
-119 -151 -170 -238 0
-119 -151 -171 -237 0
-119 -151 -177 -217 0
-119 -151 -178 -216 0
-119 -151 -188 -206 0
-119 -151 -189 -205 0
-119 -156 -170 -233 0
-119 -156 -171 -232 0
-119 -156 -178 -211 0
-119 -156 -183 -206 0
-119 -156 -184 -205 0
-120 -122 -232 -272 0
-120 -122 -233 -269 0
-120 -122 -235 -267 0
-120 -122 -237 -262 0
-120 -122 -240 -257 0
-120 -122 -242 -255 0
-120 -122 -244 -253 0
-120 -123 -211 -272 0
-120 -123 -214 -267 0
-120 -123 -217 -259 0
-120 -123 -219 -257 0
-120 -123 -221 -255 0
-120 -123 -223 -253 0
-120 -123 -226 -252 0
-120 -124 -205 -272 0
-120 -124 -217 -244 0
-120 -124 -226 -237 0
-120 -125 -206 -259 0
-120 -131 -183 -272 0
-120 -131 -184 -269 0
-120 -131 -186 -267 0
-120 -131 -188 -262 0
-120 -131 -189 -259 0
-120 -131 -191 -257 0
-120 -131 -193 -255 0
-120 -131 -195 -253 0
-120 -131 -198 -252 0
-120 -132 -177 -272 0
-120 -132 -178 -269 0
-120 -132 -188 -247 0
-120 -132 -189 -244 0
-120 -132 -193 -240 0
-120 -132 -195 -238 0
-120 -133 -177 -262 0
-120 -133 -178 -259 0
-120 -133 -183 -247 0
-120 -133 -193 -235 0
-120 -133 -195 -233 0
-120 -139 -173 -267 0
-120 -139 -188 -226 0
-120 -139 -189 -223 0
-120 -139 -191 -221 0
-120 -139 -193 -219 0
-120 -139 -195 -217 0
-120 -140 -170 -262 0
-120 -140 -171 -259 0
-120 -140 -173 -257 0
-120 -140 -183 -226 0
-120 -140 -186 -221 0
-120 -140 -193 -214 0
-120 -140 -195 -212 0
-120 -140 -198 -211 0
-120 -146 -173 -242 0
-120 -146 -178 -223 0
-120 -146 -193 -208 0
-120 -146 -195 -206 0
-120 -146 -198 -205 0
-121 -122 -233 -268 0
-121 -122 -234 -267 0
-121 -122 -237 -261 0
-121 -122 -238 -258 0
-121 -122 -239 -257 0
-121 -122 -242 -254 0
-121 -122 -243 -253 0
-121 -122 -246 -252 0
-121 -123 -211 -271 0
-121 -123 -213 -267 0
-121 -123 -217 -258 0
-121 -123 -218 -257 0
-121 -123 -221 -254 0
-121 -123 -222 -253 0
-121 -123 -225 -252 0
-121 -124 -205 -271 0
-121 -124 -206 -268 0
-121 -124 -207 -267 0
-121 -124 -218 -242 0
-121 -125 -211 -246 0
-121 -125 -212 -243 0
-121 -125 -221 -234 0
-121 -125 -222 -233 0
-121 -125 -225 -232 0
-121 -131 -183 -271 0
-121 -131 -184 -268 0
-121 -131 -185 -267 0
-121 -131 -188 -261 0
-121 -131 -189 -258 0
-121 -131 -190 -257 0
-121 -131 -193 -254 0
-121 -131 -194 -253 0
-121 -131 -197 -252 0
-121 -132 -179 -267 0
-121 -132 -189 -243 0
-121 -132 -190 -242 0
-121 -132 -193 -239 0
-121 -132 -197 -237 0
-121 -133 -177 -261 0
-121 -133 -178 -258 0
-121 -133 -183 -246 0
-121 -133 -197 -232 0
-121 -139 -170 -271 0
-121 -139 -171 -268 0
-121 -139 -188 -225 0
-121 -139 -189 -222 0
-121 -139 -190 -221 0
-121 -139 -193 -218 0
-121 -139 -194 -217 0
-121 -139 -197 -216 0
-121 -140 -171 -258 0
-121 -140 -183 -225 0
-121 -140 -193 -213 0
-121 -140 -197 -211 0
-121 -146 -179 -221 0
-121 -146 -193 -207 0
-121 -146 -197 -205 0
2 0
3 0
4 0
5 0
6 0
-7 0
-8 0
-9 0
-10 0
-11 0
-12 0
-13 0
-14 0
-15 0
-16 0
17 0
18 0
19 0
20 0
-21 0
