p cnf 286 1445
-2 -3 -4 -22 -23 -31 0
-2 -3 -5 -22 -24 -32 0
-2 -3 -6 -22 -25 -33 0
-2 -4 -5 -23 -24 -39 0
-2 -4 -6 -23 -25 -40 0
-2 -5 -6 -24 -25 -46 0
-3 -4 -5 -31 -32 -39 0
-3 -4 -6 -31 -33 -40 0
-3 -5 -6 -32 -33 -46 0
-4 -5 -6 -39 -40 -46 0
7 8 9 57 58 61 0
7 8 10 57 59 62 0
7 8 11 57 60 63 0
7 9 10 58 59 64 0
7 9 11 58 60 65 0
7 10 11 59 60 66 0
8 9 10 61 62 64 0
8 9 11 61 63 65 0
8 10 11 62 63 66 0
9 10 11 64 65 66 0
12 13 14 22 23 31 0
12 13 15 22 24 32 0
12 13 16 22 25 33 0
12 13 18 22 27 35 0
12 13 19 22 28 36 0
12 13 20 22 29 37 0
12 13 21 22 30 38 0
12 14 15 23 24 39 0
12 14 16 23 25 40 0
12 14 18 23 27 42 0
12 14 19 23 28 43 0
12 14 20 23 29 44 0
12 14 21 23 30 45 0
12 15 16 24 25 46 0
12 15 18 24 27 48 0
12 15 19 24 28 49 0
12 15 20 24 29 50 0
12 15 21 24 30 51 0
12 16 18 25 27 53 0
12 16 19 25 28 54 0
12 16 20 25 29 55 0
12 16 21 25 30 56 0
12 18 19 27 28 61 0
12 18 20 27 29 62 0
12 18 21 27 30 63 0
12 19 20 28 29 64 0
12 19 21 28 30 65 0
12 20 21 29 30 66 0
13 14 15 31 32 39 0
13 14 16 31 33 40 0
13 14 18 31 35 42 0
13 14 19 31 36 43 0
13 14 20 31 37 44 0
13 14 21 31 38 45 0
13 15 16 32 33 46 0
13 15 18 32 35 48 0
13 15 19 32 36 49 0
13 15 20 32 37 50 0
13 15 21 32 38 51 0
13 16 18 33 35 53 0
13 16 19 33 36 54 0
13 16 20 33 37 55 0
13 16 21 33 38 56 0
13 18 19 35 36 61 0
13 18 20 35 37 62 0
13 18 21 35 38 63 0
13 19 20 36 37 64 0
13 19 21 36 38 65 0
13 20 21 37 38 66 0
14 15 16 39 40 46 0
14 15 18 39 42 48 0
14 15 19 39 43 49 0
14 15 20 39 44 50 0
14 15 21 39 45 51 0
14 16 18 40 42 53 0
14 16 19 40 43 54 0
14 16 20 40 44 55 0
14 16 21 40 45 56 0
14 18 19 42 43 61 0
14 18 20 42 44 62 0
14 18 21 42 45 63 0
14 19 20 43 44 64 0
14 19 21 43 45 65 0
14 20 21 44 45 66 0
15 16 18 46 48 53 0
15 16 19 46 49 54 0
15 16 20 46 50 55 0
15 16 21 46 51 56 0
15 18 19 48 49 61 0
15 18 20 48 50 62 0
15 18 21 48 51 63 0
15 19 20 49 50 64 0
15 19 21 49 51 65 0
15 20 21 50 51 66 0
16 18 19 53 54 61 0
16 18 20 53 55 62 0
16 18 21 53 56 63 0
16 19 20 54 55 64 0
16 19 21 54 56 65 0
16 20 21 55 56 66 0
-22 -26 -27 -34 -35 -57 0
-22 -26 -28 -34 -36 -58 0
-22 -27 -28 -35 -36 -61 0
-22 -27 -29 -35 -37 -62 0
-22 -27 -30 -35 -38 -63 0
-22 -28 -29 -36 -37 -64 0
-22 -28 -30 -36 -38 -65 0
-22 -29 -30 -37 -38 -66 0
-23 -25 -27 -40 -42 -53 0
-23 -25 -28 -40 -43 -54 0
-23 -27 -28 -42 -43 -61 0
-23 -27 -29 -42 -44 -62 0
-23 -27 -30 -42 -45 -63 0
-23 -28 -29 -43 -44 -64 0
-23 -28 -30 -43 -45 -65 0
-23 -29 -30 -44 -45 -66 0
-24 -26 -28 -47 -49 -58 0
-24 -27 -28 -48 -49 -61 0
-24 -27 -29 -48 -50 -62 0
-24 -27 -30 -48 -51 -63 0
-24 -28 -29 -49 -50 -64 0
-24 -28 -30 -49 -51 -65 0
-24 -29 -30 -50 -51 -66 0
-25 -27 -28 -53 -54 -61 0
-25 -27 -29 -53 -55 -62 0
-25 -27 -30 -53 -56 -63 0
-25 -28 -29 -54 -55 -64 0
-25 -28 -30 -54 -56 -65 0
-25 -29 -30 -55 -56 -66 0
-26 -27 -28 -57 -58 -61 0
-26 -27 -29 -57 -59 -62 0
-26 -29 -30 -59 -60 -66 0
-27 -28 -29 -61 -62 -64 0
-27 -28 -30 -61 -63 -65 0
-27 -29 -30 -62 -63 -66 0
-28 -29 -30 -64 -65 -66 0
-31 -32 -35 -39 -42 -48 0
-31 -35 -36 -42 -43 -61 0
-31 -35 -37 -42 -44 -62 0
-31 -35 -38 -42 -45 -63 0
-31 -36 -37 -43 -44 -64 0
-31 -36 -38 -43 -45 -65 0
-31 -37 -38 -44 -45 -66 0
-32 -35 -36 -48 -49 -61 0
-32 -35 -37 -48 -50 -62 0
-32 -35 -38 -48 -51 -63 0
-32 -36 -37 -49 -50 -64 0
-32 -36 -38 -49 -51 -65 0
-32 -37 -38 -50 -51 -66 0
-33 -35 -36 -53 -54 -61 0
-33 -35 -37 -53 -55 -62 0
-33 -35 -38 -53 -56 -63 0
-33 -36 -37 -54 -55 -64 0
-33 -36 -38 -54 -56 -65 0
-33 -37 -38 -55 -56 -66 0
-35 -36 -38 -61 -63 -65 0
-36 -37 -38 -64 -65 -66 0
-39 -42 -43 -48 -49 -61 0
-39 -42 -44 -48 -50 -62 0
-39 -42 -45 -48 -51 -63 0
-39 -43 -44 -49 -50 -64 0
-39 -43 -45 -49 -51 -65 0
-39 -44 -45 -50 -51 -66 0
-40 -42 -43 -53 -54 -61 0
-40 -42 -44 -53 -55 -62 0
-40 -42 -45 -53 -56 -63 0
-40 -43 -44 -54 -55 -64 0
-40 -43 -45 -54 -56 -65 0
-40 -44 -45 -55 -56 -66 0
-41 -43 -45 -58 -60 -65 0
-42 -43 -45 -61 -63 -65 0
-43 -44 -45 -64 -65 -66 0
-46 -48 -49 -53 -54 -61 0
-46 -48 -50 -53 -55 -62 0
-46 -48 -51 -53 -56 -63 0
-46 -49 -50 -54 -55 -64 0
-46 -49 -51 -54 -56 -65 0
-46 -50 -51 -55 -56 -66 0
-47 -48 -50 -57 -59 -62 0
-48 -49 -50 -61 -62 -64 0
-48 -49 -51 -61 -63 -65 0
-48 -50 -51 -62 -63 -66 0
-49 -50 -51 -64 -65 -66 0
-53 -54 -55 -61 -62 -64 0
-53 -54 -56 -61 -63 -65 0
-53 -55 -56 -62 -63 -66 0
-54 -55 -56 -64 -65 -66 0
-57 -58 -60 -61 -63 -65 0
77 -2 -3 -22 0
78 -2 -4 -23 0
79 -2 -5 -24 0
80 -2 -6 -25 0
86 -3 -4 -31 0
87 -3 -5 -32 0
88 -3 -6 -33 0
94 -4 -5 -39 0
95 -4 -6 -40 0
101 -5 -6 -46 0
112 7 8 57 0
113 7 9 58 0
114 7 10 59 0
115 7 11 60 0
116 8 9 61 0
117 8 10 62 0
118 8 11 63 0
119 9 10 64 0
120 9 11 65 0
121 10 11 66 0
122 12 13 22 0
123 12 14 23 0
124 12 15 24 0
125 12 16 25 0
127 12 18 27 0
128 12 19 28 0
129 12 20 29 0
130 12 21 30 0
131 13 14 31 0
132 13 15 32 0
133 13 16 33 0
135 13 18 35 0
136 13 19 36 0
137 13 20 37 0
138 13 21 38 0
139 14 15 39 0
140 14 16 40 0
142 14 18 42 0
143 14 19 43 0
144 14 20 44 0
145 14 21 45 0
146 15 16 46 0
148 15 18 48 0
149 15 19 49 0
150 15 20 50 0
151 15 21 51 0
153 16 18 53 0
154 16 19 54 0
155 16 20 55 0
156 16 21 56 0
161 18 19 61 0
162 18 20 62 0
163 18 21 63 0
164 19 20 64 0
165 19 21 65 0
166 20 21 66 0
170 -22 -26 -34 0
170 22 26 34 0
171 -22 -27 -35 0
172 -22 -28 -36 0
173 -22 -29 -37 0
174 -22 -30 -38 0
177 -23 -26 -41 0
177 23 26 41 0
178 -23 -27 -42 0
179 -23 -28 -43 0
180 -23 -29 -44 0
181 -23 -30 -45 0
183 -24 -26 -47 0
183 24 26 47 0
184 -24 -27 -48 0
185 -24 -28 -49 0
186 -24 -29 -50 0
187 -24 -30 -51 0
188 25 26 52 0
189 -25 -27 -53 0
190 -25 -28 -54 0
191 -25 -29 -55 0
192 -25 -30 -56 0
193 -26 -27 -57 0
193 26 27 57 0
194 -26 -28 -58 0
194 26 28 58 0
195 -26 -29 -59 0
195 26 29 59 0
196 -26 -30 -60 0
196 26 30 60 0
197 -27 -28 -61 0
198 -27 -29 -62 0
199 -27 -30 -63 0
200 -28 -29 -64 0
201 -28 -30 -65 0
202 -29 -30 -66 0
205 31 34 41 0
206 -31 -35 -42 0
207 -31 -36 -43 0
208 -31 -37 -44 0
208 31 37 44 0
209 -31 -38 -45 0
209 31 38 45 0
211 -32 -34 -47 0
211 32 34 47 0
212 -32 -35 -48 0
213 -32 -36 -49 0
214 -32 -37 -50 0
215 -32 -38 -51 0
216 -33 -34 -52 0
216 33 34 52 0
217 -33 -35 -53 0
218 -33 -36 -54 0
219 -33 -37 -55 0
220 -33 -38 -56 0
221 -34 -35 -57 0
221 34 35 57 0
222 -34 -36 -58 0
222 34 36 58 0
223 -34 -37 -59 0
223 34 37 59 0
224 -34 -38 -60 0
224 34 38 60 0
225 -35 -36 -61 0
226 -35 -37 -62 0
226 35 37 62 0
227 -35 -38 -63 0
228 -36 -37 -64 0
229 -36 -38 -65 0
230 -37 -38 -66 0
232 -39 -41 -47 0
232 39 41 47 0
233 -39 -42 -48 0
234 -39 -43 -49 0
234 39 43 49 0
235 -39 -44 -50 0
236 -39 -45 -51 0
237 -40 -41 -52 0
237 40 41 52 0
238 -40 -42 -53 0
239 -40 -43 -54 0
240 -40 -44 -55 0
241 -40 -45 -56 0
242 -41 -42 -57 0
242 41 42 57 0
243 -41 -43 -58 0
243 41 43 58 0
244 -41 -44 -59 0
244 41 44 59 0
245 -41 -45 -60 0
245 41 45 60 0
246 -42 -43 -61 0
247 -42 -44 -62 0
247 42 44 62 0
248 -42 -45 -63 0
249 -43 -44 -64 0
250 -43 -45 -65 0
251 -44 -45 -66 0
252 -46 -47 -52 0
252 46 47 52 0
253 -46 -48 -53 0
254 -46 -49 -54 0
255 -46 -50 -55 0
256 -46 -51 -56 0
257 -47 -48 -57 0
257 47 48 57 0
258 -47 -49 -58 0
258 47 49 58 0
259 -47 -50 -59 0
259 47 50 59 0
260 -47 -51 -60 0
260 47 51 60 0
261 -48 -49 -61 0
262 -48 -50 -62 0
263 -48 -51 -63 0
264 -49 -50 -64 0
265 -49 -51 -65 0
266 -50 -51 -66 0
267 -52 -53 -57 0
267 52 53 57 0
268 -52 -54 -58 0
268 52 54 58 0
269 -52 -55 -59 0
269 52 55 59 0
270 -52 -56 -60 0
270 52 56 60 0
271 -53 -54 -61 0
272 -53 -55 -62 0
273 -53 -56 -63 0
273 53 56 63 0
274 -54 -55 -64 0
275 -54 -56 -65 0
276 -55 -56 -66 0
277 -57 -58 -61 0
278 -57 -59 -62 0
279 -57 -60 -63 0
280 -58 -59 -64 0
281 -58 -60 -65 0
282 -59 -60 -66 0
284 -61 -63 -65 0
285 -62 -63 -66 0
286 -64 -65 -66 0
-77 -139 -271 -282 0
-77 -139 -272 -281 0
-77 -139 -273 -280 0
-77 -139 -274 -279 0
-77 -139 -275 -278 0
-77 -139 -276 -277 0
-77 -140 -258 -285 0
-77 -140 -259 -284 0
-77 -140 -261 -282 0
-77 -140 -263 -280 0
-77 -140 -264 -279 0
-77 -140 -265 -278 0
-77 -140 -266 -277 0
-77 -142 -255 -281 0
-77 -142 -256 -280 0
-77 -143 -253 -282 0
-77 -143 -255 -279 0
-77 -143 -257 -276 0
-77 -144 -253 -281 0
-77 -144 -257 -275 0
-77 -145 -253 -280 0
-77 -145 -254 -278 0
-77 -145 -255 -277 0
-77 -145 -262 -268 0
-77 -149 -244 -273 0
-77 -149 -245 -272 0
-77 -153 -235 -281 0
-77 -153 -236 -280 0
-77 -154 -235 -279 0
-77 -155 -233 -281 0
-77 -156 -233 -280 0
-77 -156 -235 -277 0
-77 -161 -235 -270 0
-77 -161 -236 -269 0
-77 -161 -241 -259 0
-77 -161 -251 -252 0
-77 -162 -234 -270 0
-77 -162 -239 -260 0
-77 -162 -243 -256 0
-77 -163 -232 -274 0
-77 -163 -234 -269 0
-77 -163 -235 -268 0
-77 -163 -237 -264 0
-77 -163 -239 -259 0
-77 -163 -240 -258 0
-77 -163 -243 -255 0
-77 -163 -244 -254 0
-77 -164 -233 -270 0
-77 -164 -241 -257 0
-77 -164 -242 -256 0
-77 -164 -245 -253 0
-77 -165 -233 -269 0
-77 -165 -235 -267 0
-77 -165 -238 -259 0
-77 -165 -240 -257 0
-77 -165 -242 -255 0
-77 -165 -247 -252 0
-77 -166 -232 -271 0
-77 -166 -234 -267 0
-77 -166 -239 -257 0
-78 -132 -269 -284 0
-78 -132 -271 -282 0
-78 -132 -272 -281 0
-78 -132 -274 -279 0
-78 -132 -275 -278 0
-78 -132 -276 -277 0
-78 -133 -259 -284 0
-78 -133 -261 -282 0
-78 -133 -262 -281 0
-78 -133 -263 -280 0
-78 -133 -264 -279 0
-78 -133 -266 -277 0
-78 -135 -255 -281 0
-78 -135 -256 -280 0
-78 -136 -253 -282 0
-78 -136 -257 -276 0
-78 -137 -253 -281 0
-78 -137 -256 -277 0
-78 -138 -253 -280 0
-78 -138 -254 -278 0
-78 -138 -255 -277 0
-78 -138 -262 -268 0
-78 -146 -227 -280 0
-78 -149 -223 -273 0
-78 -149 -224 -272 0
-78 -150 -220 -277 0
-78 -153 -214 -281 0
-78 -153 -215 -280 0
-78 -156 -214 -277 0
-78 -161 -219 -260 0
-78 -161 -220 -259 0
-78 -162 -215 -268 0
-78 -162 -218 -260 0
-78 -162 -224 -254 0
-78 -163 -211 -274 0
-78 -163 -213 -269 0
-78 -163 -214 -268 0
-78 -163 -216 -264 0
-78 -163 -219 -258 0
-78 -163 -222 -255 0
-78 -163 -228 -252 0
-78 -164 -211 -273 0
-78 -164 -220 -257 0
-78 -164 -221 -256 0
-78 -165 -219 -257 0
-78 -165 -221 -255 0
-78 -166 -213 -267 0
-78 -166 -218 -257 0
-79 -133 -244 -284 0
-79 -133 -247 -281 0
-79 -133 -249 -279 0
-79 -135 -239 -282 0
-79 -135 -241 -280 0
-79 -137 -238 -281 0
-79 -138 -240 -277 0
-79 -142 -220 -280 0
-79 -143 -220 -278 0
-79 -145 -219 -277 0
-79 -153 -207 -282 0
-79 -153 -208 -281 0
-79 -154 -208 -279 0
-79 -155 -206 -281 0
-79 -155 -207 -279 0
-79 -162 -218 -245 0
-79 -163 -208 -268 0
-79 -163 -219 -243 0
-79 -164 -209 -267 0
-79 -164 -220 -242 0
-79 -164 -221 -241 0
-79 -164 -224 -238 0
-79 -165 -208 -267 0
-79 -166 -207 -267 0
-79 -166 -217 -243 0
-79 -166 -222 -238 0
-80 -131 -261 -282 0
-80 -131 -262 -281 0
-80 -131 -263 -280 0
-80 -131 -264 -279 0
-80 -131 -266 -277 0
-80 -132 -246 -282 0
-80 -132 -247 -281 0
-80 -132 -248 -280 0
-80 -132 -251 -277 0
-80 -135 -235 -281 0
-80 -138 -234 -278 0
-80 -138 -235 -277 0
-80 -139 -227 -280 0
-80 -139 -228 -279 0
-80 -142 -214 -281 0
-80 -142 -215 -280 0
-80 -143 -212 -282 0
-80 -143 -214 -279 0
-80 -148 -208 -281 0
-80 -149 -206 -282 0
-80 -151 -206 -280 0
-80 -161 -208 -260 0
-80 -161 -209 -259 0
-80 -162 -207 -260 0
-80 -162 -213 -245 0
-80 -163 -207 -259 0
-80 -163 -208 -258 0
-80 -163 -214 -243 0
-80 -163 -222 -235 0
-80 -164 -206 -260 0
-80 -164 -209 -257 0
-80 -165 -206 -259 0
-80 -165 -208 -257 0
-80 -166 -206 -258 0
-80 -166 -207 -257 0
-80 -166 -213 -242 0
-80 -166 -222 -233 0
-86 -124 -267 -286 0
-86 -124 -271 -282 0
-86 -124 -272 -281 0
-86 -124 -273 -280 0
-86 -124 -274 -279 0
-86 -124 -275 -278 0
-86 -124 -276 -277 0
-86 -125 -259 -284 0
-86 -125 -261 -282 0
-86 -125 -262 -281 0
-86 -125 -263 -280 0
-86 -125 -264 -279 0
-86 -125 -265 -278 0
-86 -125 -266 -277 0
-86 -127 -255 -281 0
-86 -127 -256 -280 0
-86 -127 -258 -276 0
-86 -128 -253 -282 0
-86 -128 -255 -279 0
-86 -129 -253 -281 0
-86 -129 -254 -279 0
-86 -130 -254 -278 0
-86 -130 -255 -277 0
-86 -146 -197 -282 0
-86 -146 -198 -281 0
-86 -146 -200 -279 0
-86 -146 -202 -277 0
-86 -148 -192 -280 0
-86 -148 -201 -269 0
-86 -149 -192 -278 0
-86 -151 -195 -271 0
-86 -153 -186 -281 0
-86 -154 -184 -282 0
-86 -154 -186 -279 0
-86 -154 -187 -278 0
-86 -155 -184 -281 0
-86 -161 -183 -276 0
-86 -161 -186 -270 0
-86 -161 -187 -269 0
-86 -162 -185 -270 0
-86 -162 -190 -260 0
-86 -163 -186 -268 0
-86 -163 -190 -259 0
-86 -164 -192 -257 0
-86 -164 -193 -256 0
-86 -166 -184 -268 0
-86 -166 -185 -267 0
-86 -166 -190 -257 0
-86 -166 -194 -253 0
-87 -123 -271 -282 0
-87 -123 -276 -277 0
-87 -125 -244 -284 0
-87 -125 -247 -281 0
-87 -125 -249 -279 0
-87 -125 -250 -278 0
-87 -127 -244 -275 0
-87 -128 -240 -279 0
-87 -129 -241 -277 0
-87 -140 -194 -285 0
-87 -140 -198 -281 0
-87 -140 -200 -279 0
-87 -140 -201 -278 0
-87 -140 -202 -277 0
-87 -142 -190 -282 0
-87 -142 -191 -281 0
-87 -143 -191 -279 0
-87 -153 -180 -281 0
-87 -161 -180 -270 0
-87 -161 -181 -269 0
-87 -161 -196 -240 0
-87 -162 -188 -250 0
-87 -162 -190 -245 0
-87 -162 -192 -243 0
-87 -162 -194 -241 0
-87 -162 -196 -239 0
-87 -163 -177 -274 0
-87 -163 -179 -269 0
-87 -163 -180 -268 0
-87 -163 -190 -244 0
-87 -163 -191 -243 0
-87 -163 -195 -239 0
-87 -164 -178 -270 0
-87 -164 -189 -245 0
-87 -164 -192 -242 0
-87 -164 -193 -241 0
-87 -164 -196 -238 0
-87 -165 -178 -269 0
-87 -165 -180 -267 0
-87 -165 -195 -238 0
-87 -166 -177 -271 0
-87 -166 -178 -268 0
-87 -166 -179 -267 0
-87 -166 -189 -243 0
-87 -166 -190 -242 0
-87 -166 -193 -239 0
-87 -166 -194 -238 0
-88 -123 -258 -285 0
-88 -123 -261 -282 0
-88 -123 -263 -280 0
-88 -123 -264 -279 0
-88 -123 -265 -278 0
-88 -123 -266 -277 0
-88 -124 -244 -284 0
-88 -124 -248 -280 0
-88 -124 -249 -279 0
-88 -124 -250 -278 0
-88 -124 -251 -277 0
-88 -128 -233 -282 0
-88 -128 -235 -279 0
-88 -128 -236 -278 0
-88 -129 -233 -281 0
-88 -129 -234 -279 0
-88 -129 -236 -277 0
-88 -130 -234 -278 0
-88 -139 -197 -282 0
-88 -139 -198 -281 0
-88 -139 -199 -280 0
-88 -139 -200 -279 0
-88 -139 -201 -278 0
-88 -139 -202 -277 0
-88 -142 -186 -281 0
-88 -142 -187 -280 0
-88 -143 -184 -282 0
-88 -143 -186 -279 0
-88 -143 -187 -278 0
-88 -143 -202 -257 0
-88 -144 -184 -281 0
-88 -145 -184 -280 0
-88 -145 -185 -278 0
-88 -145 -186 -277 0
-88 -148 -179 -282 0
-88 -148 -180 -281 0
-88 -148 -195 -250 0
-88 -148 -196 -249 0
-88 -148 -202 -243 0
-88 -151 -178 -280 0
-88 -151 -180 -277 0
-88 -161 -180 -260 0
-88 -161 -202 -232 0
-88 -162 -177 -265 0
-88 -162 -185 -245 0
-88 -163 -177 -264 0
-88 -163 -179 -259 0
-88 -163 -180 -258 0
-88 -163 -183 -249 0
-88 -163 -185 -244 0
-88 -163 -195 -234 0
-88 -164 -181 -257 0
-88 -164 -184 -245 0
-88 -164 -193 -236 0
-88 -164 -196 -233 0
-88 -165 -180 -257 0
-88 -165 -184 -244 0
-88 -165 -195 -233 0
-88 -166 -177 -261 0
-88 -166 -178 -258 0
-88 -166 -183 -246 0
-88 -166 -184 -243 0
-88 -166 -185 -242 0
-88 -166 -193 -234 0
-88 -166 -194 -233 0
-88 -166 -197 -232 0
-94 -125 -226 -281 0
-94 -125 -229 -278 0
-94 -129 -217 -281 0
-94 -129 -220 -277 0
-94 -133 -198 -281 0
-94 -133 -200 -279 0
-94 -133 -201 -278 0
-94 -135 -190 -282 0
-94 -136 -189 -282 0
-94 -138 -189 -280 0
-94 -153 -173 -281 0
-94 -153 -174 -280 0
-94 -154 -174 -278 0
-94 -155 -171 -281 0
-94 -155 -174 -277 0
-94 -156 -172 -278 0
-94 -156 -173 -277 0
-94 -161 -173 -270 0
-94 -161 -174 -269 0
-94 -161 -191 -224 0
-94 -161 -192 -223 0
-94 -161 -195 -220 0
-94 -161 -196 -219 0
-94 -161 -202 -216 0
-94 -162 -172 -270 0
-94 -162 -174 -268 0
-94 -162 -190 -224 0
-94 -162 -194 -220 0
-94 -162 -196 -218 0
-94 -163 -172 -269 0
-94 -163 -173 -268 0
-94 -163 -188 -228 0
-94 -163 -194 -219 0
-94 -163 -195 -218 0
-94 -164 -174 -267 0
-94 -164 -189 -224 0
-94 -164 -192 -221 0
-94 -164 -196 -217 0
-94 -164 -199 -216 0
-94 -165 -171 -269 0
-94 -165 -173 -267 0
-94 -165 -189 -223 0
-94 -165 -195 -217 0
-94 -166 -170 -271 0
-94 -166 -171 -268 0
-94 -166 -188 -225 0
-94 -166 -193 -218 0
-94 -166 -194 -217 0
-94 -166 -197 -216 0
-95 -122 -261 -282 0
-95 -122 -262 -281 0
-95 -122 -264 -279 0
-95 -122 -265 -278 0
-95 -122 -266 -277 0
-95 -124 -223 -284 0
-95 -124 -228 -279 0
-95 -127 -214 -281 0
-95 -128 -215 -278 0
-95 -129 -213 -279 0
-95 -132 -197 -282 0
-95 -132 -198 -281 0
-95 -132 -199 -280 0
-95 -132 -202 -277 0
-95 -135 -185 -282 0
-95 -135 -194 -266 0
-95 -135 -202 -258 0
-95 -136 -187 -278 0
-95 -138 -185 -278 0
-95 -148 -172 -282 0
-95 -148 -173 -281 0
-95 -148 -174 -280 0
-95 -148 -202 -222 0
-95 -150 -171 -281 0
-95 -150 -174 -277 0
-95 -151 -171 -280 0
-95 -161 -173 -260 0
-95 -161 -174 -259 0
-95 -161 -195 -215 0
-95 -161 -196 -214 0
-95 -161 -202 -211 0
-95 -162 -174 -258 0
-95 -162 -196 -213 0
-95 -163 -172 -259 0
-95 -163 -183 -228 0
-95 -163 -185 -223 0
-95 -163 -186 -222 0
-95 -164 -171 -260 0
-95 -164 -174 -257 0
-95 -164 -184 -224 0
-95 -164 -187 -221 0
-95 -165 -173 -257 0
-95 -165 -184 -223 0
-95 -165 -195 -212 0
-95 -166 -171 -258 0
-95 -166 -172 -257 0
-95 -166 -197 -211 0
-101 -122 -244 -284 0
-101 -122 -246 -282 0
-101 -122 -248 -280 0
-101 -122 -249 -279 0
-101 -122 -250 -278 0
-101 -123 -221 -286 0
-101 -123 -225 -282 0
-101 -123 -226 -281 0
-101 -123 -228 -279 0
-101 -127 -208 -281 0
-101 -128 -206 -282 0
-101 -128 -208 -279 0
-101 -130 -206 -280 0
-101 -130 -207 -278 0
-101 -131 -194 -285 0
-101 -131 -195 -284 0
-101 -131 -197 -282 0
-101 -131 -198 -281 0
-101 -131 -200 -279 0
-101 -131 -201 -278 0
-101 -131 -202 -277 0
-101 -136 -180 -279 0
-101 -136 -181 -278 0
-101 -137 -178 -281 0
-101 -138 -178 -280 0
-101 -142 -174 -280 0
-101 -161 -181 -223 0
-101 -161 -195 -209 0
-101 -162 -172 -245 0
-101 -162 -181 -222 0
-101 -162 -194 -209 0
-101 -163 -172 -244 0
-101 -163 -177 -228 0
-101 -163 -179 -223 0
-101 -163 -195 -207 0
-101 -164 -171 -245 0
-101 -164 -181 -221 0
-101 -165 -171 -244 0
-101 -166 -171 -243 0
-101 -166 -172 -242 0
-101 -166 -178 -222 0
-112 -122 -240 -265 0
-112 -122 -249 -256 0
-112 -122 -250 -255 0
-112 -123 -219 -265 0
-112 -123 -220 -264 0
-112 -123 -228 -256 0
-112 -123 -229 -255 0
-112 -123 -230 -254 0
-112 -124 -208 -275 0
-112 -124 -209 -274 0
-112 -124 -219 -250 0
-112 -124 -220 -249 0
-112 -125 -207 -266 0
-112 -125 -208 -265 0
-112 -125 -214 -250 0
-112 -128 -208 -256 0
-112 -128 -209 -255 0
-112 -128 -219 -236 0
-112 -128 -220 -235 0
-112 -129 -213 -241 0
-112 -129 -215 -239 0
-112 -129 -218 -236 0
-112 -130 -207 -255 0
-112 -130 -208 -254 0
-112 -130 -219 -234 0
-112 -131 -186 -275 0
-112 -131 -190 -266 0
-112 -131 -191 -265 0
-112 -131 -192 -264 0
-112 -131 -200 -256 0
-112 -131 -201 -255 0
-112 -131 -202 -254 0
-112 -132 -179 -276 0
-112 -132 -180 -275 0
-112 -132 -191 -250 0
-112 -132 -200 -241 0
-112 -132 -202 -239 0
-112 -133 -200 -236 0
-112 -133 -201 -235 0
-112 -133 -202 -234 0
-112 -136 -180 -256 0
-112 -136 -187 -240 0
-112 -137 -181 -254 0
-112 -138 -179 -255 0
-112 -138 -186 -239 0
-112 -138 -190 -235 0
-112 -138 -191 -234 0
-112 -139 -172 -276 0
-112 -139 -173 -275 0
-112 -140 -173 -265 0
-112 -140 -200 -215 0
-112 -140 -201 -214 0
-112 -140 -202 -213 0
-112 -143 -174 -255 0
-112 -143 -186 -220 0
-112 -143 -191 -215 0
-112 -143 -192 -214 0
-112 -144 -190 -215 0
-112 -145 -172 -255 0
-112 -145 -185 -219 0
-112 -145 -186 -218 0
-112 -145 -190 -214 0
-112 -145 -191 -213 0
-112 -146 -172 -251 0
-112 -146 -174 -249 0
-112 -149 -181 -219 0
-112 -149 -191 -209 0
-112 -150 -179 -220 0
-112 -150 -190 -209 0
-112 -151 -173 -239 0
-112 -151 -179 -219 0
-112 -151 -180 -218 0
-112 -151 -190 -208 0
-112 -151 -191 -207 0
-112 -154 -173 -236 0
-112 -154 -174 -235 0
-112 -154 -186 -209 0
-112 -154 -187 -208 0
-112 -156 -172 -235 0
-112 -156 -173 -234 0
-112 -156 -179 -214 0
-112 -156 -180 -213 0
-113 -122 -238 -266 0
-113 -122 -247 -256 0
-113 -122 -248 -255 0
-113 -122 -251 -253 0
-113 -123 -212 -276 0
-113 -123 -215 -272 0
-113 -123 -217 -266 0
-113 -123 -230 -253 0
-113 -124 -206 -276 0
-113 -124 -208 -273 0
-113 -124 -209 -272 0
-113 -124 -219 -248 0
-113 -125 -208 -263 0
-113 -125 -209 -262 0
-113 -125 -214 -248 0
-113 -127 -208 -256 0
-113 -127 -209 -255 0
-113 -127 -215 -240 0
-113 -127 -219 -236 0
-113 -129 -209 -253 0
-113 -129 -212 -241 0
-113 -129 -217 -236 0
-113 -129 -220 -233 0
-113 -130 -206 -255 0
-113 -130 -208 -253 0
-113 -130 -214 -238 0
-113 -130 -217 -235 0
-113 -131 -189 -266 0
-113 -131 -198 -256 0
-113 -131 -199 -255 0
-113 -131 -202 -253 0
-113 -132 -178 -276 0
-113 -132 -191 -248 0
-113 -132 -202 -238 0
-113 -133 -180 -263 0
-113 -133 -181 -262 0
-113 -133 -198 -236 0
-113 -133 -199 -235 0
-113 -135 -180 -256 0
-113 -137 -178 -256 0
-113 -137 -181 -253 0
-113 -137 -187 -238 0
-113 -138 -178 -255 0
-113 -138 -180 -253 0
-113 -138 -184 -240 0
-113 -138 -186 -238 0
-113 -138 -189 -235 0
-113 -138 -191 -233 0
-113 -139 -171 -276 0
-113 -140 -198 -215 0
-113 -142 -173 -256 0
-113 -142 -174 -255 0
-113 -142 -186 -220 0
-113 -142 -187 -219 0
-113 -142 -192 -214 0
-113 -144 -187 -217 0
-113 -144 -189 -215 0
-113 -145 -171 -255 0
-113 -145 -173 -253 0
-113 -145 -184 -219 0
-113 -145 -186 -217 0
-113 -145 -189 -214 0
-113 -145 -191 -212 0
-113 -146 -173 -248 0
-113 -148 -174 -240 0
-113 -148 -180 -220 0
-113 -148 -191 -209 0
-113 -148 -192 -208 0
-113 -150 -178 -220 0
-113 -151 -171 -240 0
-113 -151 -178 -219 0
-113 -151 -180 -217 0
-113 -151 -191 -206 0
-113 -153 -173 -236 0
-113 -153 -174 -235 0
-113 -153 -180 -215 0
-113 -153 -181 -214 0
-113 -153 -187 -208 0
-113 -155 -171 -236 0
-113 -155 -174 -233 0
-113 -155 -178 -215 0
-113 -155 -184 -209 0
-113 -155 -187 -206 0
-113 -156 -171 -235 0
-113 -156 -173 -233 0
-113 -156 -178 -214 0
-113 -156 -186 -206 0
-114 -122 -241 -261 0
-114 -123 -215 -271 0
-114 -124 -206 -275 0
-114 -124 -207 -273 0
-114 -124 -209 -271 0
-114 -124 -225 -241 0
-114 -127 -207 -256 0
-114 -127 -209 -254 0
-114 -127 -215 -239 0
-114 -127 -218 -236 0
-114 -128 -206 -256 0
-114 -128 -209 -253 0
-114 -128 -215 -238 0
-114 -130 -206 -254 0
-114 -130 -207 -253 0
-114 -130 -212 -239 0
-114 -130 -213 -238 0
-114 -130 -217 -234 0
-114 -130 -218 -233 0
-114 -131 -189 -265 0
-114 -131 -190 -263 0
-114 -131 -197 -256 0
-114 -131 -199 -254 0
-114 -131 -201 -253 0
-114 -132 -178 -275 0
-114 -132 -179 -273 0
-114 -132 -181 -271 0
-114 -132 -190 -248 0
-114 -132 -192 -246 0
-114 -133 -179 -263 0
-114 -133 -184 -250 0
-114 -133 -197 -236 0
-114 -133 -199 -234 0
-114 -133 -201 -233 0
-114 -135 -179 -256 0
-114 -135 -181 -254 0
-114 -135 -190 -236 0
-114 -136 -178 -256 0
-114 -136 -181 -253 0
-114 -136 -187 -238 0
-114 -136 -189 -236 0
-114 -138 -178 -254 0
-114 -138 -179 -253 0
-114 -138 -185 -238 0
-114 -138 -189 -234 0
-114 -138 -190 -233 0
-114 -139 -171 -275 0
-114 -139 -174 -271 0
-114 -139 -190 -227 0
-114 -139 -192 -225 0
-114 -139 -199 -218 0
-114 -140 -199 -213 0
-114 -140 -201 -212 0
-114 -142 -172 -256 0
-114 -142 -174 -254 0
-114 -142 -185 -220 0
-114 -142 -187 -218 0
-114 -142 -190 -215 0
-114 -142 -192 -213 0
-114 -143 -171 -256 0
-114 -143 -174 -253 0
-114 -143 -184 -220 0
-114 -143 -187 -217 0
-114 -143 -189 -215 0
-114 -143 -192 -212 0
-114 -145 -172 -253 0
-114 -145 -184 -218 0
-114 -145 -185 -217 0
-114 -145 -189 -213 0
-114 -145 -190 -212 0
-114 -148 -172 -241 0
-114 -148 -181 -218 0
-114 -148 -192 -207 0
-114 -149 -171 -241 0
-114 -149 -174 -238 0
-114 -149 -178 -220 0
-114 -149 -181 -217 0
-114 -149 -189 -209 0
-114 -149 -192 -206 0
-114 -151 -171 -239 0
-114 -151 -178 -218 0
-114 -151 -190 -206 0
-114 -153 -172 -236 0
-114 -154 -171 -236 0
-114 -154 -178 -215 0
-114 -154 -181 -212 0
-114 -156 -172 -233 0
-114 -156 -184 -207 0
-114 -156 -185 -206 0
-115 -122 -238 -264 0
-115 -122 -239 -262 0
-115 -122 -246 -255 0
-115 -122 -247 -254 0
-115 -122 -249 -253 0
-115 -123 -217 -264 0
-115 -123 -225 -255 0
-115 -123 -226 -254 0
-115 -123 -228 -253 0
-115 -124 -206 -274 0
-115 -124 -208 -271 0
-115 -124 -217 -249 0
-115 -124 -219 -246 0
-115 -124 -225 -240 0
-115 -125 -206 -264 0
-115 -125 -207 -262 0
-115 -125 -208 -261 0
-115 -127 -207 -255 0
-115 -127 -214 -239 0
-115 -127 -218 -235 0
-115 -127 -219 -234 0
-115 -128 -206 -255 0
-115 -128 -208 -253 0
-115 -128 -214 -238 0
-115 -128 -217 -235 0
-115 -128 -219 -233 0
-115 -129 -212 -239 0
-115 -129 -217 -234 0
-115 -129 -218 -233 0
-115 -131 -189 -264 0
-115 -131 -191 -261 0
-115 -131 -197 -255 0
-115 -131 -198 -254 0
-115 -131 -200 -253 0
-115 -132 -178 -274 0
-115 -132 -179 -272 0
-115 -132 -180 -271 0
-115 -132 -189 -249 0
-115 -132 -191 -246 0
-115 -132 -197 -240 0
-115 -132 -200 -238 0
-115 -133 -179 -262 0
-115 -133 -200 -233 0
-115 -135 -180 -254 0
-115 -135 -185 -240 0
-115 -135 -190 -235 0
-115 -135 -191 -234 0
-115 -136 -178 -255 0
-115 -136 -180 -253 0
-115 -136 -186 -238 0
-115 -136 -189 -235 0
-115 -137 -179 -253 0
-115 -137 -184 -239 0
-115 -137 -185 -238 0
-115 -137 -189 -234 0
-115 -137 -190 -233 0
-115 -139 -172 -272 0
-115 -139 -173 -271 0
-115 -139 -191 -225 0
-115 -139 -197 -219 0
-115 -139 -200 -217 0
-115 -140 -171 -264 0
-115 -140 -173 -261 0
-115 -142 -172 -255 0
-115 -142 -185 -219 0
-115 -142 -186 -218 0
-115 -142 -191 -213 0
-115 -143 -171 -255 0
-115 -143 -173 -253 0
-115 -143 -184 -219 0
-115 -143 -186 -217 0
-115 -143 -189 -214 0
-115 -143 -191 -212 0
-115 -144 -171 -254 0
-115 -144 -184 -218 0
-115 -144 -185 -217 0
-115 -146 -198 -207 0
-115 -148 -172 -240 0
-115 -148 -173 -239 0
-115 -148 -179 -219 0
-115 -148 -180 -218 0
-115 -149 -171 -240 0
-115 -149 -173 -238 0
-115 -149 -178 -219 0
-115 -149 -180 -217 0
-115 -149 -191 -206 0
-115 -150 -171 -239 0
-115 -150 -172 -238 0
-115 -150 -178 -218 0
-115 -150 -179 -217 0
-115 -150 -189 -207 0
-115 -153 -172 -235 0
-115 -153 -173 -234 0
-115 -153 -185 -208 0
-115 -153 -186 -207 0
-115 -154 -171 -235 0
-115 -154 -173 -233 0
-115 -154 -184 -208 0
-115 -154 -186 -206 0
-115 -155 -172 -233 0
-115 -155 -179 -212 0
-115 -155 -184 -207 0
-116 -122 -240 -260 0
-116 -123 -215 -269 0
-116 -123 -219 -260 0
-116 -123 -220 -259 0
-116 -124 -219 -245 0
-116 -125 -209 -259 0
-116 -125 -214 -245 0
-116 -125 -224 -235 0
-116 -129 -209 -252 0
-116 -129 -220 -232 0
-116 -130 -219 -232 0
-116 -131 -183 -276 0
-116 -131 -188 -266 0
-116 -131 -196 -255 0
-116 -131 -202 -252 0
-116 -132 -177 -276 0
-116 -132 -195 -241 0
-116 -132 -196 -240 0
-116 -133 -180 -260 0
-116 -133 -186 -245 0
-116 -138 -191 -232 0
-116 -139 -173 -270 0
-116 -139 -195 -220 0
-116 -140 -195 -215 0
-116 -144 -174 -252 0
-116 -144 -183 -220 0
-116 -145 -173 -252 0
-116 -146 -202 -205 0
-116 -150 -188 -209 0
-116 -151 -173 -237 0
-116 -156 -173 -232 0
-117 -122 -232 -275 0
-117 -122 -243 -256 0
-117 -123 -218 -260 0
-117 -123 -220 -258 0
-117 -124 -229 -237 0
-117 -130 -218 -232 0
-117 -131 -183 -275 0
-117 -131 -188 -265 0
-117 -131 -196 -254 0
-117 -132 -179 -270 0
-117 -132 -192 -243 0
-117 -138 -188 -234 0
-117 -143 -174 -252 0
-117 -143 -183 -220 0
-117 -143 -192 -211 0
-117 -149 -170 -241 0
-117 -156 -185 -205 0
-118 -122 -234 -269 0
-118 -122 -237 -264 0
-118 -123 -218 -259 0
-118 -124 -205 -274 0
-118 -124 -207 -269 0
-118 -124 -208 -268 0
-118 -124 -216 -249 0
-118 -125 -208 -258 0
-118 -125 -222 -235 0
-118 -125 -228 -232 0
-118 -131 -183 -274 0
-118 -131 -190 -259 0
-118 -131 -194 -255 0
-118 -131 -195 -254 0
-118 -131 -200 -252 0
-118 -132 -177 -274 0
-118 -132 -191 -243 0
-118 -132 -200 -237 0
-118 -133 -179 -259 0
-118 -133 -180 -258 0
-118 -133 -194 -235 0
-118 -133 -200 -232 0
-118 -136 -177 -255 0
-118 -136 -183 -240 0
-118 -139 -170 -274 0
-118 -139 -188 -228 0
-118 -139 -200 -216 0
-118 -140 -173 -258 0
-118 -140 -200 -211 0
-118 -143 -170 -255 0
-118 -143 -173 -252 0
-118 -143 -191 -211 0
-118 -144 -172 -252 0
-118 -144 -183 -218 0
-118 -146 -177 -228 0
-118 -149 -173 -237 0
-118 -150 -172 -237 0
-118 -154 -177 -214 0
-118 -154 -183 -208 0
-118 -154 -186 -205 0
-118 -155 -185 -205 0
-119 -122 -232 -273 0
-119 -122 -238 -260 0
-119 -122 -242 -256 0
-119 -122 -245 -253 0
-119 -123 -215 -267 0
-119 -123 -217 -260 0
-119 -123 -220 -257 0
-119 -123 -221 -256 0
-119 -123 -224 -253 0
-119 -124 -205 -273 0
-119 -124 -206 -270 0
-119 -125 -206 -260 0
-119 -125 -209 -257 0
-119 -125 -215 -242 0
-119 -125 -221 -236 0
-119 -127 -220 -232 0
-119 -130 -211 -238 0
-119 -130 -217 -232 0
-119 -131 -183 -273 0
-119 -131 -188 -263 0
-119 -131 -193 -256 0
-119 -131 -196 -253 0
-119 -131 -199 -252 0
-119 -132 -177 -273 0
-119 -132 -178 -270 0
-119 -132 -196 -238 0
-119 -132 -199 -237 0
-119 -138 -177 -253 0
-119 -138 -178 -252 0
-119 -138 -183 -238 0
-119 -138 -184 -237 0
-119 -138 -189 -232 0
-119 -139 -171 -270 0
-119 -139 -193 -220 0
-119 -142 -174 -252 0
-119 -142 -188 -215 0
-119 -142 -192 -211 0
-119 -146 -171 -245 0
-119 -148 -177 -220 0
-119 -151 -177 -217 0
-119 -156 -170 -233 0
-119 -156 -177 -212 0
-120 -122 -238 -259 0
-120 -123 -212 -269 0
-120 -123 -217 -259 0
-120 -123 -219 -257 0
-120 -123 -223 -253 0
-120 -124 -205 -272 0
-120 -124 -206 -269 0
-120 -125 -214 -242 0
-120 -125 -221 -235 0
-120 -127 -219 -232 0
-120 -129 -211 -238 0
-120 -131 -183 -272 0
-120 -131 -186 -267 0
-120 -131 -188 -262 0
-120 -131 -191 -257 0
-120 -131 -195 -253 0
-120 -131 -198 -252 0
-120 -132 -177 -272 0
-120 -132 -195 -238 0
-120 -132 -198 -237 0
-120 -135 -183 -240 0
-120 -135 -186 -237 0
-120 -137 -183 -238 0
-120 -137 -184 -237 0
-120 -137 -188 -233 0
-120 -137 -189 -232 0
-120 -139 -173 -267 0
-120 -140 -186 -221 0
-120 -142 -173 -252 0
-120 -142 -191 -211 0
-120 -144 -189 -211 0
-120 -146 -171 -244 0
-120 -148 -177 -219 0
-120 -150 -177 -217 0
-121 -122 -232 -271 0
-121 -122 -238 -258 0
-121 -122 -239 -257 0
-121 -123 -217 -258 0
-121 -123 -218 -257 0
-121 -123 -225 -252 0
-121 -124 -205 -271 0
-121 -125 -211 -246 0
-121 -125 -221 -234 0
-121 -127 -211 -239 0
-121 -127 -218 -232 0
-121 -128 -211 -238 0
-121 -128 -217 -232 0
-121 -131 -183 -271 0
-121 -131 -185 -267 0
-121 -131 -194 -253 0
-121 -131 -197 -252 0
-121 -132 -177 -271 0
-121 -132 -178 -268 0
-121 -132 -188 -246 0
-121 -132 -193 -239 0
-121 -132 -194 -238 0
-121 -133 -193 -234 0
-121 -133 -197 -232 0
-121 -135 -190 -232 0
-121 -136 -183 -238 0
-121 -136 -188 -233 0
-121 -139 -170 -271 0
-121 -139 -171 -268 0
-121 -142 -172 -252 0
-121 -142 -190 -211 0
-121 -143 -171 -252 0
-121 -143 -183 -217 0
-121 -143 -184 -216 0
-121 -143 -189 -211 0
-121 -146 -170 -246 0
-121 -146 -171 -243 0
-121 -146 -172 -242 0
-121 -146 -177 -225 0
-121 -146 -194 -206 0
-121 -148 -170 -239 0
-121 -148 -172 -237 0
-121 -148 -177 -218 0
-121 -153 -177 -213 0
2 0
3 0
4 0
5 0
6 0
-7 0
-8 0
-9 0
-10 0
-11 0
-12 0
-13 0
-14 0
-15 0
-16 0
-18 0
-19 0
-20 0
-21 0
