p cnf 286 1892
-1 -2 -3 -12 -13 -22 0
-2 -4 -5 -23 -24 -39 0
-2 -4 -6 -23 -25 -40 0
-2 -4 -7 -23 -26 -41 0
-2 -5 -6 -24 -25 -46 0
-2 -5 -7 -24 -26 -47 0
-2 -6 -7 -25 -26 -52 0
-3 -4 -5 -31 -32 -39 0
-3 -4 -6 -31 -33 -40 0
-3 -4 -7 -31 -34 -41 0
-3 -5 -6 -32 -33 -46 0
-3 -5 -7 -32 -34 -47 0
-3 -6 -7 -33 -34 -52 0
-4 -5 -6 -39 -40 -46 0
-4 -5 -7 -39 -41 -47 0
-4 -6 -7 -40 -41 -52 0
-5 -6 -7 -46 -47 -52 0
8 9 10 61 62 64 0
8 9 11 61 63 65 0
8 10 11 62 63 66 0
9 10 11 64 65 66 0
-12 -18 -19 -27 -28 -61 0
-12 -18 -20 -27 -29 -62 0
-12 -18 -21 -27 -30 -63 0
-12 -19 -20 -28 -29 -64 0
-12 -19 -21 -28 -30 -65 0
-12 -20 -21 -29 -30 -66 0
-13 -18 -19 -35 -36 -61 0
-13 -18 -20 -35 -37 -62 0
-13 -18 -21 -35 -38 -63 0
-13 -19 -20 -36 -37 -64 0
-13 -19 -21 -36 -38 -65 0
-13 -20 -21 -37 -38 -66 0
14 15 16 39 40 46 0
14 15 17 39 41 47 0
14 16 17 40 41 52 0
15 16 17 46 47 52 0
-18 -19 -20 -61 -62 -64 0
-18 -19 -21 -61 -63 -65 0
-18 -20 -21 -62 -63 -66 0
-19 -20 -21 -64 -65 -66 0
22 23 24 31 32 39 0
22 23 25 31 33 40 0
22 23 26 31 34 41 0
22 23 27 31 35 42 0
22 23 28 31 36 43 0
22 23 29 31 37 44 0
22 23 30 31 38 45 0
22 24 25 32 33 46 0
22 24 26 32 34 47 0
22 24 27 32 35 48 0
22 24 28 32 36 49 0
22 24 29 32 37 50 0
22 24 30 32 38 51 0
22 25 26 33 34 52 0
22 25 27 33 35 53 0
22 25 28 33 36 54 0
22 25 29 33 37 55 0
22 25 30 33 38 56 0
22 26 27 34 35 57 0
22 26 28 34 36 58 0
22 26 29 34 37 59 0
22 26 30 34 38 60 0
22 27 28 35 36 61 0
22 27 29 35 37 62 0
22 27 30 35 38 63 0
22 28 29 36 37 64 0
22 28 30 36 38 65 0
22 29 30 37 38 66 0
23 24 27 39 42 48 0
23 25 27 40 42 53 0
23 25 30 40 45 56 0
23 26 29 41 44 59 0
23 28 29 43 44 64 0
23 28 30 43 45 65 0
24 25 26 46 47 52 0
24 25 28 46 49 54 0
24 27 29 48 50 62 0
25 26 28 52 54 58 0
25 28 30 54 56 65 0
31 32 35 39 42 48 0
31 32 36 39 43 49 0
31 32 37 39 44 50 0
31 32 38 39 45 51 0
31 33 35 40 42 53 0
31 33 36 40 43 54 0
31 33 37 40 44 55 0
31 33 38 40 45 56 0
31 34 35 41 42 57 0
31 34 36 41 43 58 0
31 34 37 41 44 59 0
31 34 38 41 45 60 0
31 37 38 44 45 66 0
32 33 35 46 48 53 0
32 33 36 46 49 54 0
32 33 37 46 50 55 0
32 33 38 46 51 56 0
32 34 37 47 50 59 0
32 34 38 47 51 60 0
32 35 37 48 50 62 0
32 35 38 48 51 63 0
32 36 37 49 50 64 0
32 36 38 49 51 65 0
33 34 35 52 53 57 0
33 34 36 52 54 58 0
33 34 37 52 55 59 0
33 34 38 52 56 60 0
33 36 37 54 55 64 0
34 37 38 59 60 66 0
-39 -42 -43 -48 -49 -61 0
-39 -42 -45 -48 -51 -63 0
-39 -43 -44 -49 -50 -64 0
-39 -43 -45 -49 -51 -65 0
-39 -44 -45 -50 -51 -66 0
-40 -42 -43 -53 -54 -61 0
-40 -42 -44 -53 -55 -62 0
-40 -42 -45 -53 -56 -63 0
-40 -43 -44 -54 -55 -64 0
-40 -44 -45 -55 -56 -66 0
-41 -42 -43 -57 -58 -61 0
-41 -42 -44 -57 -59 -62 0
41 42 45 57 60 63 0
-41 -43 -44 -58 -59 -64 0
-41 -43 -45 -58 -60 -65 0
-41 -44 -45 -59 -60 -66 0
-46 -48 -49 -53 -54 -61 0
-46 -48 -50 -53 -55 -62 0
-46 -48 -51 -53 -56 -63 0
46 49 50 54 55 64 0
-46 -49 -51 -54 -56 -65 0
-46 -50 -51 -55 -56 -66 0
-47 -48 -49 -57 -58 -61 0
-47 -48 -50 -57 -59 -62 0
-47 -48 -51 -57 -60 -63 0
-47 -49 -50 -58 -59 -64 0
-47 -49 -51 -58 -60 -65 0
-47 -50 -51 -59 -60 -66 0
-52 -53 -54 -57 -58 -61 0
-52 -53 -55 -57 -59 -62 0
-52 -53 -56 -57 -60 -63 0
-52 -54 -55 -58 -59 -64 0
-52 -54 -56 -58 -60 -65 0
-52 -55 -56 -59 -60 -66 0
67 -1 -2 -12 0
68 -1 -3 -13 0
78 -2 -4 -23 0
79 -2 -5 -24 0
80 -2 -6 -25 0
81 -2 -7 -26 0
86 -3 -4 -31 0
87 -3 -5 -32 0
88 -3 -6 -33 0
89 -3 -7 -34 0
94 -4 -5 -39 0
95 -4 -6 -40 0
96 -4 -7 -41 0
101 -5 -6 -46 0
102 -5 -7 -47 0
107 -6 -7 -52 0
116 8 9 61 0
117 8 10 62 0
118 8 11 63 0
119 9 10 64 0
120 9 11 65 0
121 10 11 66 0
127 -12 -18 -27 0
128 -12 -19 -28 0
129 -12 -20 -29 0
130 -12 -21 -30 0
135 -13 -18 -35 0
136 -13 -19 -36 0
137 -13 -20 -37 0
138 -13 -21 -38 0
139 14 15 39 0
140 14 16 40 0
141 14 17 41 0
146 15 16 46 0
147 15 17 47 0
152 16 17 52 0
161 -18 -19 -61 0
162 -18 -20 -62 0
163 -18 -21 -63 0
164 -19 -20 -64 0
165 -19 -21 -65 0
166 -20 -21 -66 0
167 22 23 31 0
168 22 24 32 0
169 22 25 33 0
170 22 26 34 0
171 22 27 35 0
172 22 28 36 0
173 22 29 37 0
174 22 30 38 0
175 23 24 39 0
176 23 25 40 0
177 23 26 41 0
178 -23 -27 -42 0
178 23 27 42 0
179 -23 -28 -43 0
179 23 28 43 0
180 -23 -29 -44 0
180 23 29 44 0
181 -23 -30 -45 0
181 23 30 45 0
182 24 25 46 0
183 -24 -26 -47 0
183 24 26 47 0
184 -24 -27 -48 0
184 24 27 48 0
185 -24 -28 -49 0
185 24 28 49 0
186 -24 -29 -50 0
186 24 29 50 0
187 -24 -30 -51 0
187 24 30 51 0
188 25 26 52 0
189 -25 -27 -53 0
189 25 27 53 0
190 -25 -28 -54 0
190 25 28 54 0
191 -25 -29 -55 0
191 25 29 55 0
192 -25 -30 -56 0
192 25 30 56 0
193 -26 -27 -57 0
193 26 27 57 0
194 -26 -28 -58 0
194 26 28 58 0
195 -26 -29 -59 0
195 26 29 59 0
196 -26 -30 -60 0
196 26 30 60 0
197 27 28 61 0
198 27 29 62 0
199 27 30 63 0
200 28 29 64 0
201 28 30 65 0
202 29 30 66 0
203 31 32 39 0
204 31 33 40 0
205 31 34 41 0
206 -31 -35 -42 0
206 31 35 42 0
207 -31 -36 -43 0
207 31 36 43 0
208 -31 -37 -44 0
208 31 37 44 0
209 -31 -38 -45 0
209 31 38 45 0
210 32 33 46 0
211 32 34 47 0
212 -32 -35 -48 0
212 32 35 48 0
213 -32 -36 -49 0
213 32 36 49 0
214 -32 -37 -50 0
214 32 37 50 0
215 -32 -38 -51 0
215 32 38 51 0
216 33 34 52 0
217 -33 -35 -53 0
217 33 35 53 0
218 -33 -36 -54 0
218 33 36 54 0
219 -33 -37 -55 0
219 33 37 55 0
220 -33 -38 -56 0
220 33 38 56 0
221 -34 -35 -57 0
221 34 35 57 0
222 -34 -36 -58 0
222 34 36 58 0
223 -34 -37 -59 0
223 34 37 59 0
224 -34 -38 -60 0
224 34 38 60 0
225 35 36 61 0
226 35 37 62 0
227 35 38 63 0
228 36 37 64 0
229 36 38 65 0
230 37 38 66 0
233 -39 -42 -48 0
233 39 42 48 0
234 -39 -43 -49 0
234 39 43 49 0
235 -39 -44 -50 0
235 39 44 50 0
236 -39 -45 -51 0
236 39 45 51 0
238 -40 -42 -53 0
238 40 42 53 0
239 -40 -43 -54 0
239 40 43 54 0
240 -40 -44 -55 0
240 40 44 55 0
241 -40 -45 -56 0
241 40 45 56 0
242 -41 -42 -57 0
242 41 42 57 0
243 -41 -43 -58 0
243 41 43 58 0
244 -41 -44 -59 0
244 41 44 59 0
245 -41 -45 -60 0
245 41 45 60 0
246 -42 -43 -61 0
246 42 43 61 0
247 -42 -44 -62 0
247 42 44 62 0
248 -42 -45 -63 0
248 42 45 63 0
249 -43 -44 -64 0
249 43 44 64 0
250 -43 -45 -65 0
250 43 45 65 0
251 -44 -45 -66 0
251 44 45 66 0
253 -46 -48 -53 0
253 46 48 53 0
254 -46 -49 -54 0
254 46 49 54 0
255 -46 -50 -55 0
255 46 50 55 0
256 -46 -51 -56 0
256 46 51 56 0
257 -47 -48 -57 0
257 47 48 57 0
258 -47 -49 -58 0
258 47 49 58 0
259 -47 -50 -59 0
259 47 50 59 0
260 -47 -51 -60 0
260 47 51 60 0
261 -48 -49 -61 0
261 48 49 61 0
262 -48 -50 -62 0
262 48 50 62 0
263 -48 -51 -63 0
263 48 51 63 0
264 -49 -50 -64 0
264 49 50 64 0
265 -49 -51 -65 0
265 49 51 65 0
266 -50 -51 -66 0
266 50 51 66 0
267 -52 -53 -57 0
267 52 53 57 0
268 -52 -54 -58 0
268 52 54 58 0
269 -52 -55 -59 0
269 52 55 59 0
270 -52 -56 -60 0
270 52 56 60 0
271 -53 -54 -61 0
271 53 54 61 0
272 -53 -55 -62 0
272 53 55 62 0
273 -53 -56 -63 0
273 53 56 63 0
274 -54 -55 -64 0
274 54 55 64 0
275 -54 -56 -65 0
275 54 56 65 0
276 -55 -56 -66 0
276 55 56 66 0
277 -57 -58 -61 0
277 57 58 61 0
278 -57 -59 -62 0
278 57 59 62 0
279 -57 -60 -63 0
279 57 60 63 0
280 -58 -59 -64 0
280 58 59 64 0
281 -58 -60 -65 0
281 58 60 65 0
282 -59 -60 -66 0
282 59 60 66 0
283 -61 -62 -64 0
-67 -206 -256 -280 0
-67 -209 -258 -272 0
-67 -209 -261 -269 0
-67 -210 -250 -278 0
-67 -211 -241 -283 0
-67 -214 -245 -271 0
-67 -215 -238 -280 0
-67 -215 -249 -267 0
-67 -217 -243 -266 0
-67 -223 -233 -275 0
-67 -224 -239 -262 0
-67 -224 -240 -261 0
-67 -229 -240 -257 0
-67 -230 -233 -268 0
-67 -230 -234 -267 0
-67 -230 -238 -258 0
-67 -230 -239 -257 0
-67 -230 -242 -254 0
-67 -230 -243 -253 0
-68 -180 -253 -281 0
-68 -181 -253 -280 0
-68 -181 -261 -269 0
-68 -187 -242 -274 0
-68 -193 -251 -254 0
-68 -200 -233 -270 0
-68 -200 -241 -257 0
-78 -135 -255 -281 0
-78 -135 -260 -274 0
-78 -136 -259 -273 0
-78 -138 -253 -280 0
-78 -138 -264 -267 0
-78 -146 -226 -281 0
-78 -146 -227 -280 0
-78 -146 -228 -279 0
-78 -146 -229 -278 0
-78 -146 -230 -277 0
-78 -147 -226 -275 0
-78 -147 -227 -274 0
-78 -147 -228 -273 0
-78 -147 -229 -272 0
-78 -147 -230 -271 0
-78 -152 -226 -265 0
-78 -152 -227 -264 0
-78 -152 -228 -263 0
-78 -152 -229 -262 0
-78 -152 -230 -261 0
-78 -161 -210 -282 0
-78 -161 -211 -276 0
-78 -161 -214 -270 0
-78 -161 -215 -269 0
-78 -161 -216 -266 0
-78 -161 -219 -260 0
-78 -161 -220 -259 0
-78 -161 -224 -255 0
-78 -162 -210 -281 0
-78 -162 -211 -275 0
-78 -162 -213 -270 0
-78 -162 -216 -265 0
-78 -163 -210 -280 0
-78 -163 -211 -274 0
-78 -163 -213 -269 0
-78 -163 -214 -268 0
-78 -163 -216 -264 0
-78 -163 -219 -258 0
-78 -163 -222 -255 0
-78 -164 -210 -279 0
-78 -164 -211 -273 0
-78 -164 -215 -267 0
-78 -164 -216 -263 0
-78 -164 -217 -260 0
-78 -164 -224 -253 0
-78 -165 -210 -278 0
-78 -165 -211 -272 0
-78 -165 -214 -267 0
-78 -165 -216 -262 0
-78 -165 -219 -257 0
-78 -165 -221 -255 0
-78 -165 -223 -253 0
-78 -166 -210 -277 0
-78 -166 -211 -271 0
-78 -166 -212 -268 0
-78 -166 -213 -267 0
-78 -166 -216 -261 0
-79 -135 -245 -274 0
-79 -136 -244 -273 0
-79 -136 -251 -267 0
-79 -137 -242 -275 0
-79 -137 -248 -268 0
-79 -138 -240 -277 0
-79 -138 -249 -267 0
-79 -140 -225 -282 0
-79 -140 -226 -281 0
-79 -140 -227 -280 0
-79 -140 -228 -279 0
-79 -140 -229 -278 0
-79 -140 -230 -277 0
-79 -141 -226 -275 0
-79 -141 -227 -274 0
-79 -141 -228 -273 0
-79 -141 -229 -272 0
-79 -141 -230 -271 0
-79 -152 -225 -251 0
-79 -152 -226 -250 0
-79 -152 -227 -249 0
-79 -152 -228 -248 0
-79 -152 -229 -247 0
-79 -152 -230 -246 0
-79 -161 -204 -282 0
-79 -161 -205 -276 0
-79 -161 -208 -270 0
-79 -161 -209 -269 0
-79 -161 -216 -251 0
-79 -161 -219 -245 0
-79 -161 -224 -240 0
-79 -162 -204 -281 0
-79 -162 -205 -275 0
-79 -162 -216 -250 0
-79 -162 -218 -245 0
-79 -162 -220 -243 0
-79 -163 -204 -280 0
-79 -163 -205 -274 0
-79 -163 -208 -268 0
-79 -163 -216 -249 0
-79 -163 -218 -244 0
-79 -163 -219 -243 0
-79 -163 -222 -240 0
-79 -163 -223 -239 0
-79 -164 -204 -279 0
-79 -164 -205 -273 0
-79 -164 -206 -270 0
-79 -164 -209 -267 0
-79 -164 -216 -248 0
-79 -164 -217 -245 0
-79 -164 -220 -242 0
-79 -164 -221 -241 0
-79 -165 -204 -278 0
-79 -165 -205 -272 0
-79 -165 -206 -269 0
-79 -165 -208 -267 0
-79 -165 -216 -247 0
-79 -165 -219 -242 0
-79 -165 -223 -238 0
-79 -166 -204 -277 0
-79 -166 -205 -271 0
-79 -166 -206 -268 0
-79 -166 -207 -267 0
-79 -166 -216 -246 0
-79 -166 -217 -243 0
-79 -166 -218 -242 0
-79 -166 -221 -239 0
-79 -166 -222 -238 0
-80 -135 -235 -281 0
-80 -136 -233 -282 0
-80 -136 -248 -259 0
-80 -137 -248 -258 0
-80 -138 -242 -264 0
-80 -139 -225 -282 0
-80 -139 -226 -281 0
-80 -139 -227 -280 0
-80 -139 -228 -279 0
-80 -139 -229 -278 0
-80 -139 -230 -277 0
-80 -141 -226 -265 0
-80 -141 -227 -264 0
-80 -141 -228 -263 0
-80 -141 -229 -262 0
-80 -141 -230 -261 0
-80 -147 -225 -251 0
-80 -147 -226 -250 0
-80 -147 -227 -249 0
-80 -147 -228 -248 0
-80 -147 -229 -247 0
-80 -147 -230 -246 0
-80 -161 -203 -282 0
-80 -161 -205 -266 0
-80 -161 -208 -260 0
-80 -161 -211 -251 0
-80 -161 -224 -235 0
-80 -162 -203 -281 0
-80 -162 -205 -265 0
-80 -162 -211 -250 0
-80 -162 -213 -245 0
-80 -162 -224 -234 0
-80 -163 -203 -280 0
-80 -163 -205 -264 0
-80 -163 -207 -259 0
-80 -163 -211 -249 0
-80 -163 -222 -235 0
-80 -164 -203 -279 0
-80 -164 -205 -263 0
-80 -164 -209 -257 0
-80 -164 -211 -248 0
-80 -164 -215 -242 0
-80 -165 -203 -278 0
-80 -165 -205 -262 0
-80 -165 -211 -247 0
-80 -165 -212 -244 0
-80 -165 -221 -235 0
-80 -165 -223 -233 0
-80 -166 -203 -277 0
-80 -166 -205 -261 0
-80 -166 -207 -257 0
-80 -166 -211 -246 0
-80 -166 -222 -233 0
-81 -136 -236 -272 0
-81 -136 -238 -266 0
-81 -137 -234 -273 0
-81 -137 -238 -265 0
-81 -137 -246 -256 0
-81 -138 -239 -262 0
-81 -138 -246 -255 0
-81 -139 -225 -276 0
-81 -139 -226 -275 0
-81 -139 -227 -274 0
-81 -139 -228 -273 0
-81 -139 -229 -272 0
-81 -139 -230 -271 0
-81 -140 -226 -265 0
-81 -140 -227 -264 0
-81 -140 -228 -263 0
-81 -140 -229 -262 0
-81 -140 -230 -261 0
-81 -146 -226 -250 0
-81 -146 -227 -249 0
-81 -146 -228 -248 0
-81 -146 -229 -247 0
-81 -146 -230 -246 0
-81 -161 -203 -276 0
-81 -161 -204 -266 0
-81 -161 -209 -255 0
-81 -161 -210 -251 0
-81 -161 -214 -241 0
-81 -161 -220 -235 0
-81 -162 -203 -275 0
-81 -162 -204 -265 0
-81 -162 -207 -256 0
-81 -162 -210 -250 0
-81 -163 -203 -274 0
-81 -163 -204 -264 0
-81 -163 -210 -249 0
-81 -164 -203 -273 0
-81 -164 -204 -263 0
-81 -164 -209 -253 0
-81 -164 -210 -248 0
-81 -165 -203 -272 0
-81 -165 -204 -262 0
-81 -165 -206 -255 0
-81 -165 -208 -253 0
-81 -165 -210 -247 0
-81 -165 -214 -238 0
-81 -165 -219 -233 0
-81 -166 -203 -271 0
-81 -166 -204 -261 0
-81 -166 -207 -253 0
-81 -166 -210 -246 0
-86 -127 -255 -281 0
-86 -127 -266 -268 0
-86 -128 -260 -272 0
-86 -128 -266 -267 0
-86 -130 -257 -274 0
-86 -130 -258 -272 0
-86 -146 -201 -278 0
-86 -147 -198 -275 0
-86 -147 -199 -274 0
-86 -147 -200 -273 0
-86 -147 -201 -272 0
-86 -152 -199 -264 0
-86 -152 -200 -263 0
-86 -152 -201 -262 0
-86 -152 -202 -261 0
-86 -161 -182 -282 0
-86 -161 -183 -276 0
-86 -161 -187 -269 0
-86 -161 -188 -266 0
-86 -161 -191 -260 0
-86 -161 -195 -256 0
-86 -161 -196 -255 0
-86 -162 -182 -281 0
-86 -162 -183 -275 0
-86 -162 -188 -265 0
-86 -162 -190 -260 0
-86 -162 -192 -258 0
-86 -163 -182 -280 0
-86 -163 -183 -274 0
-86 -163 -188 -264 0
-86 -163 -190 -259 0
-86 -164 -182 -279 0
-86 -164 -183 -273 0
-86 -164 -184 -270 0
-86 -164 -187 -267 0
-86 -164 -188 -263 0
-86 -165 -182 -278 0
-86 -165 -183 -272 0
-86 -165 -184 -269 0
-86 -165 -188 -262 0
-86 -165 -191 -257 0
-86 -166 -182 -277 0
-86 -166 -183 -271 0
-86 -166 -185 -267 0
-86 -166 -188 -261 0
-87 -127 -240 -281 0
-87 -129 -238 -281 0
-87 -129 -243 -273 0
-87 -129 -245 -271 0
-87 -130 -238 -280 0
-87 -130 -249 -267 0
-87 -140 -197 -282 0
-87 -140 -198 -281 0
-87 -140 -199 -280 0
-87 -140 -200 -279 0
-87 -140 -201 -278 0
-87 -140 -202 -277 0
-87 -141 -199 -274 0
-87 -141 -201 -272 0
-87 -152 -197 -251 0
-87 -152 -198 -250 0
-87 -152 -199 -249 0
-87 -152 -201 -247 0
-87 -161 -176 -282 0
-87 -161 -177 -276 0
-87 -161 -180 -270 0
-87 -161 -188 -251 0
-87 -161 -192 -244 0
-87 -162 -176 -281 0
-87 -162 -177 -275 0
-87 -162 -188 -250 0
-87 -162 -192 -243 0
-87 -163 -176 -280 0
-87 -163 -177 -274 0
-87 -163 -179 -269 0
-87 -163 -180 -268 0
-87 -163 -188 -249 0
-87 -163 -191 -243 0
-87 -163 -195 -239 0
-87 -164 -176 -279 0
-87 -164 -177 -273 0
-87 -164 -178 -270 0
-87 -164 -188 -248 0
-87 -164 -193 -241 0
-87 -165 -176 -278 0
-87 -165 -177 -272 0
-87 -165 -188 -247 0
-87 -165 -191 -242 0
-87 -165 -195 -238 0
-87 -166 -176 -277 0
-87 -166 -177 -271 0
-87 -166 -178 -268 0
-87 -166 -179 -267 0
-87 -166 -188 -246 0
-87 -166 -190 -242 0
-88 -127 -251 -258 0
-88 -128 -248 -259 0
-88 -129 -233 -281 0
-88 -129 -248 -258 0
-88 -129 -250 -257 0
-88 -130 -233 -280 0
-88 -139 -197 -282 0
-88 -139 -198 -281 0
-88 -139 -199 -280 0
-88 -139 -200 -279 0
-88 -139 -201 -278 0
-88 -139 -202 -277 0
-88 -141 -199 -264 0
-88 -141 -202 -261 0
-88 -147 -198 -250 0
-88 -147 -199 -249 0
-88 -147 -200 -248 0
-88 -147 -201 -247 0
-88 -161 -175 -282 0
-88 -161 -177 -266 0
-88 -161 -180 -260 0
-88 -161 -181 -259 0
-88 -161 -183 -251 0
-88 -162 -175 -281 0
-88 -162 -177 -265 0
-88 -162 -181 -258 0
-88 -162 -183 -250 0
-88 -162 -185 -245 0
-88 -163 -175 -280 0
-88 -163 -177 -264 0
-88 -163 -179 -259 0
-88 -163 -180 -258 0
-88 -163 -183 -249 0
-88 -163 -185 -244 0
-88 -163 -194 -235 0
-88 -164 -175 -279 0
-88 -164 -177 -263 0
-88 -164 -178 -260 0
-88 -164 -183 -248 0
-88 -164 -184 -245 0
-88 -165 -175 -278 0
-88 -165 -177 -262 0
-88 -165 -180 -257 0
-88 -165 -183 -247 0
-88 -165 -184 -244 0
-88 -165 -186 -242 0
-88 -165 -195 -233 0
-88 -166 -175 -277 0
-88 -166 -177 -261 0
-88 -166 -178 -258 0
-88 -166 -183 -246 0
-88 -166 -184 -243 0
-88 -166 -193 -234 0
-89 -127 -239 -266 0
-89 -127 -251 -254 0
-89 -128 -248 -255 0
-89 -129 -236 -271 0
-89 -129 -239 -263 0
-89 -129 -241 -261 0
-89 -130 -233 -274 0
-89 -130 -235 -271 0
-89 -139 -198 -275 0
-89 -139 -199 -274 0
-89 -139 -200 -273 0
-89 -139 -201 -272 0
-89 -139 -202 -271 0
-89 -140 -197 -266 0
-89 -140 -198 -265 0
-89 -140 -200 -263 0
-89 -140 -201 -262 0
-89 -140 -202 -261 0
-89 -161 -175 -276 0
-89 -161 -176 -266 0
-89 -161 -180 -256 0
-89 -161 -181 -255 0
-89 -161 -182 -251 0
-89 -161 -186 -241 0
-89 -161 -187 -240 0
-89 -162 -175 -275 0
-89 -162 -176 -265 0
-89 -162 -181 -254 0
-89 -162 -182 -250 0
-89 -162 -185 -241 0
-89 -162 -187 -239 0
-89 -162 -190 -236 0
-89 -163 -175 -274 0
-89 -163 -176 -264 0
-89 -163 -179 -255 0
-89 -163 -180 -254 0
-89 -163 -182 -249 0
-89 -163 -185 -240 0
-89 -163 -190 -235 0
-89 -164 -175 -273 0
-89 -164 -176 -263 0
-89 -164 -178 -256 0
-89 -164 -181 -253 0
-89 -164 -182 -248 0
-89 -164 -189 -236 0
-89 -165 -175 -272 0
-89 -165 -176 -262 0
-89 -165 -180 -253 0
-89 -165 -182 -247 0
-89 -165 -191 -233 0
-89 -166 -175 -271 0
-89 -166 -176 -261 0
-89 -166 -178 -254 0
-89 -166 -179 -253 0
-89 -166 -182 -246 0
-89 -166 -190 -233 0
-94 -127 -224 -274 0
-94 -127 -228 -270 0
-94 -127 -229 -269 0
-94 -127 -230 -268 0
-94 -128 -226 -270 0
-94 -128 -227 -269 0
-94 -128 -230 -267 0
-94 -129 -218 -279 0
-94 -129 -220 -277 0
-94 -129 -221 -275 0
-94 -129 -225 -270 0
-94 -129 -227 -268 0
-94 -129 -229 -267 0
-94 -130 -218 -278 0
-94 -130 -221 -274 0
-94 -130 -225 -269 0
-94 -130 -226 -268 0
-94 -130 -228 -267 0
-94 -135 -196 -274 0
-94 -135 -200 -270 0
-94 -135 -201 -269 0
-94 -135 -202 -268 0
-94 -136 -189 -282 0
-94 -136 -191 -279 0
-94 -136 -196 -272 0
-94 -136 -198 -270 0
-94 -136 -199 -269 0
-94 -136 -202 -267 0
-94 -137 -194 -273 0
-94 -137 -199 -268 0
-94 -137 -201 -267 0
-94 -138 -197 -269 0
-94 -138 -198 -268 0
-94 -138 -200 -267 0
-94 -152 -197 -230 0
-94 -152 -198 -229 0
-94 -152 -199 -228 0
-94 -152 -200 -227 0
-94 -152 -201 -226 0
-94 -152 -202 -225 0
-94 -161 -169 -282 0
-94 -161 -170 -276 0
-94 -161 -173 -270 0
-94 -161 -174 -269 0
-94 -161 -191 -224 0
-94 -161 -195 -220 0
-94 -161 -196 -219 0
-94 -161 -202 -216 0
-94 -162 -169 -281 0
-94 -162 -170 -275 0
-94 -162 -172 -270 0
-94 -162 -174 -268 0
-94 -162 -190 -224 0
-94 -162 -192 -222 0
-94 -162 -196 -218 0
-94 -163 -169 -280 0
-94 -163 -170 -274 0
-94 -163 -172 -269 0
-94 -163 -173 -268 0
-94 -163 -191 -222 0
-94 -163 -194 -219 0
-94 -163 -195 -218 0
-94 -164 -169 -279 0
-94 -164 -170 -273 0
-94 -164 -171 -270 0
-94 -164 -174 -267 0
-94 -164 -189 -224 0
-94 -164 -192 -221 0
-94 -164 -193 -220 0
-94 -164 -196 -217 0
-94 -165 -169 -278 0
-94 -165 -170 -272 0
-94 -165 -171 -269 0
-94 -165 -173 -267 0
-94 -165 -189 -223 0
-94 -165 -191 -221 0
-94 -165 -193 -219 0
-94 -165 -195 -217 0
-94 -165 -198 -216 0
-94 -166 -169 -277 0
-94 -166 -170 -271 0
-94 -166 -171 -268 0
-94 -166 -172 -267 0
-94 -166 -190 -221 0
-94 -166 -194 -217 0
-95 -127 -215 -280 0
-95 -127 -228 -260 0
-95 -127 -229 -259 0
-95 -127 -230 -258 0
-95 -128 -212 -282 0
-95 -128 -214 -279 0
-95 -128 -221 -266 0
-95 -128 -226 -260 0
-95 -128 -227 -259 0
-95 -128 -230 -257 0
-95 -129 -212 -281 0
-95 -129 -215 -277 0
-95 -129 -225 -260 0
-95 -129 -227 -258 0
-95 -129 -229 -257 0
-95 -130 -212 -280 0
-95 -130 -223 -261 0
-95 -130 -226 -258 0
-95 -130 -228 -257 0
-95 -135 -200 -260 0
-95 -135 -201 -259 0
-95 -135 -202 -258 0
-95 -136 -184 -282 0
-95 -136 -187 -278 0
-95 -136 -198 -260 0
-95 -136 -199 -259 0
-95 -136 -202 -257 0
-95 -137 -184 -281 0
-95 -137 -187 -277 0
-95 -137 -193 -265 0
-95 -137 -194 -263 0
-95 -137 -197 -260 0
-95 -137 -199 -258 0
-95 -137 -201 -257 0
-95 -138 -184 -280 0
-95 -138 -186 -277 0
-95 -138 -193 -264 0
-95 -138 -195 -261 0
-95 -138 -197 -259 0
-95 -138 -198 -258 0
-95 -138 -200 -257 0
-95 -147 -197 -230 0
-95 -147 -198 -229 0
-95 -147 -199 -228 0
-95 -147 -200 -227 0
-95 -147 -201 -226 0
-95 -147 -202 -225 0
-95 -161 -168 -282 0
-95 -161 -170 -266 0
-95 -161 -173 -260 0
-95 -161 -174 -259 0
-95 -161 -183 -230 0
-95 -161 -186 -224 0
-95 -161 -195 -215 0
-95 -161 -202 -211 0
-95 -162 -168 -281 0
-95 -162 -170 -265 0
-95 -162 -172 -260 0
-95 -162 -174 -258 0
-95 -162 -185 -224 0
-95 -162 -187 -222 0
-95 -163 -168 -280 0
-95 -163 -170 -264 0
-95 -163 -172 -259 0
-95 -163 -173 -258 0
-95 -163 -183 -228 0
-95 -163 -185 -223 0
-95 -163 -186 -222 0
-95 -163 -194 -214 0
-95 -163 -195 -213 0
-95 -164 -168 -279 0
-95 -164 -170 -263 0
-95 -164 -171 -260 0
-95 -164 -174 -257 0
-95 -164 -183 -227 0
-95 -164 -184 -224 0
-95 -165 -168 -278 0
-95 -165 -170 -262 0
-95 -165 -171 -259 0
-95 -165 -173 -257 0
-95 -165 -184 -223 0
-95 -165 -186 -221 0
-95 -165 -193 -214 0
-95 -165 -195 -212 0
-95 -166 -168 -277 0
-95 -166 -170 -261 0
-95 -166 -171 -258 0
-95 -166 -172 -257 0
-95 -166 -184 -222 0
-95 -166 -193 -213 0
-96 -127 -213 -276 0
-96 -127 -219 -265 0
-96 -127 -228 -256 0
-96 -127 -229 -255 0
-96 -127 -230 -254 0
-96 -128 -214 -273 0
-96 -128 -226 -256 0
-96 -128 -227 -255 0
-96 -128 -230 -253 0
-96 -129 -213 -273 0
-96 -129 -225 -256 0
-96 -129 -227 -254 0
-96 -129 -229 -253 0
-96 -130 -212 -274 0
-96 -130 -213 -272 0
-96 -130 -214 -271 0
-96 -130 -225 -255 0
-96 -130 -226 -254 0
-96 -130 -228 -253 0
-96 -135 -185 -276 0
-96 -135 -187 -274 0
-96 -135 -200 -256 0
-96 -135 -201 -255 0
-96 -135 -202 -254 0
-96 -136 -187 -272 0
-96 -136 -198 -256 0
-96 -136 -199 -255 0
-96 -136 -202 -253 0
-96 -137 -185 -273 0
-96 -137 -192 -261 0
-96 -137 -197 -256 0
-96 -137 -199 -254 0
-96 -137 -201 -253 0
-96 -138 -185 -272 0
-96 -138 -186 -271 0
-96 -138 -197 -255 0
-96 -138 -198 -254 0
-96 -138 -200 -253 0
-96 -146 -197 -230 0
-96 -146 -198 -229 0
-96 -146 -199 -228 0
-96 -146 -200 -227 0
-96 -146 -201 -226 0
-96 -146 -202 -225 0
-96 -161 -168 -276 0
-96 -161 -169 -266 0
-96 -161 -173 -256 0
-96 -161 -174 -255 0
-96 -161 -182 -230 0
-96 -161 -186 -220 0
-96 -161 -187 -219 0
-96 -161 -191 -215 0
-96 -161 -192 -214 0
-96 -161 -202 -210 0
-96 -162 -168 -275 0
-96 -162 -169 -265 0
-96 -162 -172 -256 0
-96 -162 -174 -254 0
-96 -162 -187 -218 0
-96 -162 -190 -215 0
-96 -163 -168 -274 0
-96 -163 -169 -264 0
-96 -163 -172 -255 0
-96 -163 -173 -254 0
-96 -163 -185 -219 0
-96 -163 -186 -218 0
-96 -163 -200 -210 0
-96 -164 -168 -273 0
-96 -164 -169 -263 0
-96 -164 -171 -256 0
-96 -164 -174 -253 0
-96 -164 -184 -220 0
-96 -164 -187 -217 0
-96 -164 -189 -215 0
-96 -165 -168 -272 0
-96 -165 -169 -262 0
-96 -165 -171 -255 0
-96 -165 -173 -253 0
-96 -165 -184 -219 0
-96 -165 -186 -217 0
-96 -166 -168 -271 0
-96 -166 -169 -261 0
-96 -166 -171 -254 0
-96 -166 -172 -253 0
-96 -166 -182 -225 0
-96 -166 -190 -212 0
-101 -127 -208 -281 0
-101 -127 -223 -250 0
-101 -127 -228 -245 0
-101 -127 -229 -244 0
-101 -127 -230 -243 0
-101 -128 -206 -282 0
-101 -128 -208 -279 0
-101 -128 -226 -245 0
-101 -128 -227 -244 0
-101 -128 -230 -242 0
-101 -129 -221 -250 0
-101 -129 -225 -245 0
-101 -129 -227 -243 0
-101 -129 -229 -242 0
-101 -130 -206 -280 0
-101 -130 -223 -246 0
-101 -130 -225 -244 0
-101 -130 -226 -243 0
-101 -130 -228 -242 0
-101 -135 -179 -282 0
-101 -135 -180 -281 0
-101 -135 -181 -280 0
-101 -135 -200 -245 0
-101 -135 -201 -244 0
-101 -135 -202 -243 0
-101 -136 -178 -282 0
-101 -136 -180 -279 0
-101 -136 -181 -278 0
-101 -136 -193 -251 0
-101 -136 -198 -245 0
-101 -136 -199 -244 0
-101 -136 -202 -242 0
-101 -137 -178 -281 0
-101 -137 -181 -277 0
-101 -137 -194 -248 0
-101 -137 -196 -246 0
-101 -137 -197 -245 0
-101 -137 -199 -243 0
-101 -137 -201 -242 0
-101 -138 -178 -280 0
-101 -138 -180 -277 0
-101 -138 -193 -249 0
-101 -138 -197 -244 0
-101 -138 -198 -243 0
-101 -138 -200 -242 0
-101 -141 -197 -230 0
-101 -141 -198 -229 0
-101 -141 -199 -228 0
-101 -141 -200 -227 0
-101 -141 -201 -226 0
-101 -141 -202 -225 0
-101 -161 -167 -282 0
-101 -161 -170 -251 0
-101 -161 -173 -245 0
-101 -161 -174 -244 0
-101 -161 -177 -230 0
-101 -161 -181 -223 0
-101 -162 -167 -281 0
-101 -162 -170 -250 0
-101 -162 -172 -245 0
-101 -162 -174 -243 0
-101 -162 -177 -229 0
-101 -162 -179 -224 0
-101 -162 -181 -222 0
-101 -162 -196 -207 0
-101 -163 -167 -280 0
-101 -163 -170 -249 0
-101 -163 -172 -244 0
-101 -163 -173 -243 0
-101 -163 -179 -223 0
-101 -163 -194 -208 0
-101 -164 -167 -279 0
-101 -164 -170 -248 0
-101 -164 -171 -245 0
-101 -164 -174 -242 0
-101 -164 -177 -227 0
-101 -164 -178 -224 0
-101 -164 -181 -221 0
-101 -164 -193 -209 0
-101 -165 -167 -278 0
-101 -165 -170 -247 0
-101 -165 -171 -244 0
-101 -165 -173 -242 0
-101 -165 -178 -223 0
-101 -165 -180 -221 0
-101 -166 -167 -277 0
-101 -166 -170 -246 0
-101 -166 -171 -243 0
-101 -166 -172 -242 0
-101 -166 -178 -222 0
-101 -166 -179 -221 0
-101 -166 -193 -207 0
-102 -127 -208 -275 0
-102 -127 -209 -274 0
-102 -127 -228 -241 0
-102 -127 -229 -240 0
-102 -127 -230 -239 0
-102 -128 -209 -272 0
-102 -128 -217 -251 0
-102 -128 -226 -241 0
-102 -128 -227 -240 0
-102 -128 -230 -238 0
-102 -129 -207 -273 0
-102 -129 -209 -271 0
-102 -129 -218 -248 0
-102 -129 -227 -239 0
-102 -129 -229 -238 0
-102 -130 -206 -274 0
-102 -130 -207 -272 0
-102 -130 -217 -249 0
-102 -130 -218 -247 0
-102 -130 -219 -246 0
-102 -130 -226 -239 0
-102 -130 -228 -238 0
-102 -135 -179 -276 0
-102 -135 -181 -274 0
-102 -135 -200 -241 0
-102 -135 -201 -240 0
-102 -135 -202 -239 0
-102 -136 -180 -273 0
-102 -136 -181 -272 0
-102 -136 -189 -251 0
-102 -136 -198 -241 0
-102 -136 -199 -240 0
-102 -136 -202 -238 0
-102 -137 -181 -271 0
-102 -137 -190 -248 0
-102 -137 -192 -246 0
-102 -137 -197 -241 0
-102 -137 -199 -239 0
-102 -137 -201 -238 0
-102 -138 -178 -274 0
-102 -138 -179 -272 0
-102 -138 -180 -271 0
-102 -138 -197 -240 0
-102 -138 -198 -239 0
-102 -138 -200 -238 0
-102 -140 -197 -230 0
-102 -140 -198 -229 0
-102 -140 -199 -228 0
-102 -140 -200 -227 0
-102 -140 -201 -226 0
-102 -140 -202 -225 0
-102 -161 -167 -276 0
-102 -161 -169 -251 0
-102 -161 -173 -241 0
-102 -161 -174 -240 0
-102 -161 -176 -230 0
-102 -161 -180 -220 0
-102 -161 -181 -219 0
-102 -161 -192 -208 0
-102 -161 -202 -204 0
-102 -162 -167 -275 0
-102 -162 -169 -250 0
-102 -162 -172 -241 0
-102 -162 -174 -239 0
-102 -162 -176 -229 0
-102 -162 -179 -220 0
-102 -162 -181 -218 0
-102 -163 -167 -274 0
-102 -163 -169 -249 0
-102 -163 -172 -240 0
-102 -163 -173 -239 0
-102 -163 -179 -219 0
-102 -163 -180 -218 0
-102 -163 -190 -208 0
-102 -163 -191 -207 0
-102 -163 -200 -204 0
-102 -164 -167 -273 0
-102 -164 -169 -248 0
-102 -164 -171 -241 0
-102 -164 -174 -238 0
-102 -164 -176 -227 0
-102 -164 -178 -220 0
-102 -164 -181 -217 0
-102 -164 -189 -209 0
-102 -165 -167 -272 0
-102 -165 -169 -247 0
-102 -165 -171 -240 0
-102 -165 -173 -238 0
-102 -165 -178 -219 0
-102 -165 -180 -217 0
-102 -165 -189 -208 0
-102 -166 -167 -271 0
-102 -166 -169 -246 0
-102 -166 -171 -239 0
-102 -166 -172 -238 0
-102 -166 -176 -225 0
-102 -166 -178 -218 0
-102 -166 -179 -217 0
-102 -166 -189 -207 0
-107 -127 -213 -251 0
-107 -127 -228 -236 0
-107 -127 -229 -235 0
-107 -127 -230 -234 0
-107 -128 -226 -236 0
-107 -128 -227 -235 0
-107 -128 -230 -233 0
-107 -129 -209 -261 0
-107 -129 -215 -246 0
-107 -129 -227 -234 0
-107 -129 -229 -233 0
-107 -130 -206 -264 0
-107 -130 -208 -261 0
-107 -130 -212 -249 0
-107 -130 -225 -235 0
-107 -130 -226 -234 0
-107 -130 -228 -233 0
-107 -135 -180 -265 0
-107 -135 -200 -236 0
-107 -135 -201 -235 0
-107 -135 -202 -234 0
-107 -136 -198 -236 0
-107 -136 -199 -235 0
-107 -136 -202 -233 0
-107 -137 -178 -265 0
-107 -137 -187 -246 0
-107 -137 -199 -234 0
-107 -137 -201 -233 0
-107 -138 -178 -264 0
-107 -138 -184 -249 0
-107 -138 -197 -235 0
-107 -138 -198 -234 0
-107 -138 -200 -233 0
-107 -139 -197 -230 0
-107 -139 -198 -229 0
-107 -139 -199 -228 0
-107 -139 -200 -227 0
-107 -139 -201 -226 0
-107 -139 -202 -225 0
-107 -161 -167 -266 0
-107 -161 -168 -251 0
-107 -161 -173 -236 0
-107 -161 -174 -235 0
-107 -161 -175 -230 0
-107 -161 -180 -215 0
-107 -161 -181 -214 0
-107 -161 -186 -209 0
-107 -161 -187 -208 0
-107 -162 -167 -265 0
-107 -162 -168 -250 0
-107 -162 -172 -236 0
-107 -162 -174 -234 0
-107 -162 -175 -229 0
-107 -162 -185 -209 0
-107 -162 -187 -207 0
-107 -163 -167 -264 0
-107 -163 -168 -249 0
-107 -163 -172 -235 0
-107 -163 -173 -234 0
-107 -163 -175 -228 0
-107 -163 -179 -214 0
-107 -163 -180 -213 0
-107 -163 -185 -208 0
-107 -163 -186 -207 0
-107 -164 -167 -263 0
-107 -164 -168 -248 0
-107 -164 -171 -236 0
-107 -164 -174 -233 0
-107 -164 -175 -227 0
-107 -164 -178 -215 0
-107 -164 -184 -209 0
-107 -165 -167 -262 0
-107 -165 -168 -247 0
-107 -165 -171 -235 0
-107 -165 -173 -233 0
-107 -165 -180 -212 0
-107 -165 -184 -208 0
-107 -166 -167 -261 0
-107 -166 -168 -246 0
-107 -166 -171 -234 0
-107 -166 -172 -233 0
-107 -166 -175 -225 0
-107 -166 -178 -213 0
-107 -166 -179 -212 0
-116 -129 -210 -245 0
-116 -129 -216 -236 0
-116 -130 -204 -259 0
-116 -130 -205 -255 0
-116 -130 -210 -244 0
-116 -137 -175 -270 0
-116 -137 -176 -260 0
-116 -137 -177 -256 0
-116 -137 -182 -245 0
-116 -137 -183 -241 0
-116 -137 -188 -236 0
-116 -138 -175 -269 0
-116 -138 -176 -259 0
-116 -138 -177 -255 0
-116 -138 -182 -244 0
-116 -138 -183 -240 0
-116 -138 -188 -235 0
-116 -139 -169 -282 0
-116 -139 -170 -276 0
-116 -139 -173 -270 0
-116 -139 -174 -269 0
-116 -139 -188 -230 0
-116 -139 -191 -224 0
-116 -139 -192 -223 0
-116 -139 -196 -219 0
-116 -139 -202 -216 0
-116 -140 -168 -282 0
-116 -140 -170 -266 0
-116 -140 -173 -260 0
-116 -140 -174 -259 0
-116 -140 -183 -230 0
-116 -140 -196 -214 0
-116 -140 -202 -211 0
-116 -141 -168 -276 0
-116 -141 -169 -266 0
-116 -141 -173 -256 0
-116 -141 -174 -255 0
-116 -141 -182 -230 0
-116 -141 -192 -214 0
-116 -141 -202 -210 0
-116 -146 -167 -282 0
-116 -146 -170 -251 0
-116 -146 -173 -245 0
-116 -146 -174 -244 0
-116 -146 -177 -230 0
-116 -146 -180 -224 0
-116 -146 -181 -223 0
-116 -146 -196 -208 0
-116 -146 -202 -205 0
-116 -147 -167 -276 0
-116 -147 -169 -251 0
-116 -147 -173 -241 0
-116 -147 -174 -240 0
-116 -147 -176 -230 0
-116 -147 -180 -220 0
-116 -147 -192 -208 0
-116 -147 -202 -204 0
-116 -152 -167 -266 0
-116 -152 -168 -251 0
-116 -152 -173 -236 0
-116 -152 -174 -235 0
-116 -152 -175 -230 0
-116 -152 -180 -215 0
-116 -152 -181 -214 0
-116 -152 -187 -208 0
-116 -152 -202 -203 0
-116 -166 -175 -216 0
-116 -166 -176 -211 0
-116 -166 -177 -210 0
-116 -166 -182 -205 0
-116 -166 -183 -204 0
-116 -166 -188 -203 0
-117 -128 -203 -270 0
-117 -128 -204 -260 0
-117 -128 -205 -256 0
-117 -128 -210 -245 0
-117 -128 -211 -241 0
-117 -128 -216 -236 0
-117 -130 -203 -268 0
-117 -130 -204 -258 0
-117 -130 -205 -254 0
-117 -130 -210 -243 0
-117 -130 -211 -239 0
-117 -130 -216 -234 0
-117 -136 -175 -270 0
-117 -136 -176 -260 0
-117 -136 -177 -256 0
-117 -136 -182 -245 0
-117 -136 -183 -241 0
-117 -136 -188 -236 0
-117 -138 -175 -268 0
-117 -138 -176 -258 0
-117 -138 -177 -254 0
-117 -138 -182 -243 0
-117 -138 -183 -239 0
-117 -138 -188 -234 0
-117 -139 -169 -281 0
-117 -139 -170 -275 0
-117 -139 -172 -270 0
-117 -139 -174 -268 0
-117 -139 -188 -229 0
-117 -139 -190 -224 0
-117 -139 -192 -222 0
-117 -139 -194 -220 0
-117 -139 -196 -218 0
-117 -139 -201 -216 0
-117 -140 -168 -281 0
-117 -140 -170 -265 0
-117 -140 -172 -260 0
-117 -140 -174 -258 0
-117 -140 -183 -229 0
-117 -140 -185 -224 0
-117 -140 -187 -222 0
-117 -140 -196 -213 0
-117 -140 -201 -211 0
-117 -141 -168 -275 0
-117 -141 -169 -265 0
-117 -141 -172 -256 0
-117 -141 -174 -254 0
-117 -141 -182 -229 0
-117 -141 -185 -220 0
-117 -141 -190 -215 0
-117 -141 -201 -210 0
-117 -146 -167 -281 0
-117 -146 -170 -250 0
-117 -146 -172 -245 0
-117 -146 -174 -243 0
-117 -146 -177 -229 0
-117 -146 -179 -224 0
-117 -146 -181 -222 0
-117 -146 -194 -209 0
-117 -146 -196 -207 0
-117 -146 -201 -205 0
-117 -147 -167 -275 0
-117 -147 -169 -250 0
-117 -147 -172 -241 0
-117 -147 -174 -239 0
-117 -147 -176 -229 0
-117 -147 -190 -209 0
-117 -147 -192 -207 0
-117 -147 -201 -204 0
-117 -152 -167 -265 0
-117 -152 -168 -250 0
-117 -152 -172 -236 0
-117 -152 -174 -234 0
-117 -152 -175 -229 0
-117 -152 -179 -215 0
-117 -152 -181 -213 0
-117 -152 -185 -209 0
-117 -152 -187 -207 0
-117 -152 -201 -203 0
-117 -165 -175 -216 0
-117 -165 -176 -211 0
-117 -165 -177 -210 0
-117 -165 -182 -205 0
-117 -165 -183 -204 0
-117 -165 -188 -203 0
-118 -128 -203 -269 0
-118 -128 -204 -259 0
-118 -128 -205 -255 0
-118 -128 -210 -244 0
-118 -128 -211 -240 0
-118 -128 -216 -235 0
-118 -129 -203 -268 0
-118 -129 -204 -258 0
-118 -129 -205 -254 0
-118 -129 -210 -243 0
-118 -129 -211 -239 0
-118 -129 -216 -234 0
-118 -136 -175 -269 0
-118 -136 -176 -259 0
-118 -136 -177 -255 0
-118 -136 -182 -244 0
-118 -136 -183 -240 0
-118 -136 -188 -235 0
-118 -137 -175 -268 0
-118 -137 -176 -258 0
-118 -137 -177 -254 0
-118 -137 -182 -243 0
-118 -137 -183 -239 0
-118 -137 -188 -234 0
-118 -139 -169 -280 0
-118 -139 -170 -274 0
-118 -139 -172 -269 0
-118 -139 -173 -268 0
-118 -139 -188 -228 0
-118 -139 -190 -223 0
-118 -139 -191 -222 0
-118 -139 -194 -219 0
-118 -139 -195 -218 0
-118 -139 -200 -216 0
-118 -140 -168 -280 0
-118 -140 -170 -264 0
-118 -140 -172 -259 0
-118 -140 -173 -258 0
-118 -140 -183 -228 0
-118 -140 -185 -223 0
-118 -140 -186 -222 0
-118 -140 -194 -214 0
-118 -140 -200 -211 0
-118 -141 -168 -274 0
-118 -141 -169 -264 0
-118 -141 -172 -255 0
-118 -141 -173 -254 0
-118 -141 -182 -228 0
-118 -141 -185 -219 0
-118 -141 -191 -213 0
-118 -141 -200 -210 0
-118 -146 -167 -280 0
-118 -146 -170 -249 0
-118 -146 -172 -244 0
-118 -146 -173 -243 0
-118 -146 -177 -228 0
-118 -146 -179 -223 0
-118 -146 -194 -208 0
-118 -146 -195 -207 0
-118 -146 -200 -205 0
-118 -147 -167 -274 0
-118 -147 -169 -249 0
-118 -147 -172 -240 0
-118 -147 -173 -239 0
-118 -147 -176 -228 0
-118 -147 -179 -219 0
-118 -147 -180 -218 0
-118 -147 -190 -208 0
-118 -147 -191 -207 0
-118 -147 -200 -204 0
-118 -152 -167 -264 0
-118 -152 -168 -249 0
-118 -152 -172 -235 0
-118 -152 -173 -234 0
-118 -152 -175 -228 0
-118 -152 -179 -214 0
-118 -152 -180 -213 0
-118 -152 -185 -208 0
-118 -152 -186 -207 0
-118 -152 -200 -203 0
-118 -164 -175 -216 0
-118 -164 -176 -211 0
-118 -164 -177 -210 0
-118 -164 -182 -205 0
-118 -164 -183 -204 0
-118 -164 -188 -203 0
-119 -127 -203 -270 0
-119 -127 -204 -260 0
-119 -127 -205 -256 0
-119 -127 -210 -245 0
-119 -127 -211 -241 0
-119 -127 -216 -236 0
-119 -130 -203 -267 0
-119 -130 -204 -257 0
-119 -130 -205 -253 0
-119 -130 -210 -242 0
-119 -130 -211 -238 0
-119 -130 -216 -233 0
-119 -135 -175 -270 0
-119 -135 -176 -260 0
-119 -135 -177 -256 0
-119 -135 -182 -245 0
-119 -135 -183 -241 0
-119 -135 -188 -236 0
-119 -138 -175 -267 0
-119 -138 -176 -257 0
-119 -138 -177 -253 0
-119 -138 -182 -242 0
-119 -138 -183 -238 0
-119 -138 -188 -233 0
-119 -139 -169 -279 0
-119 -139 -170 -273 0
-119 -139 -171 -270 0
-119 -139 -174 -267 0
-119 -139 -188 -227 0
-119 -139 -189 -224 0
-119 -139 -196 -217 0
-119 -139 -199 -216 0
-119 -140 -168 -279 0
-119 -140 -170 -263 0
-119 -140 -171 -260 0
-119 -140 -174 -257 0
-119 -140 -183 -227 0
-119 -140 -187 -221 0
-119 -140 -193 -215 0
-119 -140 -196 -212 0
-119 -140 -199 -211 0
-119 -141 -168 -273 0
-119 -141 -169 -263 0
-119 -141 -171 -256 0
-119 -141 -174 -253 0
-119 -141 -182 -227 0
-119 -141 -184 -220 0
-119 -141 -189 -215 0
-119 -141 -199 -210 0
-119 -146 -167 -279 0
-119 -146 -170 -248 0
-119 -146 -171 -245 0
-119 -146 -174 -242 0
-119 -146 -177 -227 0
-119 -146 -181 -221 0
-119 -146 -193 -209 0
-119 -146 -196 -206 0
-119 -146 -199 -205 0
-119 -147 -167 -273 0
-119 -147 -169 -248 0
-119 -147 -171 -241 0
-119 -147 -174 -238 0
-119 -147 -176 -227 0
-119 -147 -178 -220 0
-119 -147 -181 -217 0
-119 -147 -189 -209 0
-119 -147 -192 -206 0
-119 -147 -199 -204 0
-119 -152 -167 -263 0
-119 -152 -168 -248 0
-119 -152 -171 -236 0
-119 -152 -174 -233 0
-119 -152 -175 -227 0
-119 -152 -178 -215 0
-119 -152 -184 -209 0
-119 -152 -187 -206 0
-119 -152 -199 -203 0
-119 -163 -175 -216 0
-119 -163 -176 -211 0
-119 -163 -177 -210 0
-119 -163 -182 -205 0
-119 -163 -183 -204 0
-119 -163 -188 -203 0
-120 -127 -203 -269 0
-120 -127 -204 -259 0
-120 -127 -205 -255 0
-120 -127 -210 -244 0
-120 -127 -211 -240 0
-120 -127 -216 -235 0
-120 -129 -203 -267 0
-120 -129 -204 -257 0
-120 -129 -205 -253 0
-120 -129 -210 -242 0
-120 -129 -211 -238 0
-120 -129 -216 -233 0
-120 -135 -175 -269 0
-120 -135 -176 -259 0
-120 -135 -177 -255 0
-120 -135 -182 -244 0
-120 -135 -183 -240 0
-120 -135 -188 -235 0
-120 -137 -175 -267 0
-120 -137 -176 -257 0
-120 -137 -177 -253 0
-120 -137 -182 -242 0
-120 -137 -183 -238 0
-120 -137 -188 -233 0
-120 -139 -169 -278 0
-120 -139 -170 -272 0
-120 -139 -171 -269 0
-120 -139 -173 -267 0
-120 -139 -188 -226 0
-120 -139 -189 -223 0
-120 -139 -191 -221 0
-120 -139 -193 -219 0
-120 -139 -195 -217 0
-120 -139 -198 -216 0
-120 -140 -168 -278 0
-120 -140 -170 -262 0
-120 -140 -171 -259 0
-120 -140 -173 -257 0
-120 -140 -183 -226 0
-120 -140 -184 -223 0
-120 -140 -186 -221 0
-120 -140 -193 -214 0
-120 -140 -198 -211 0
-120 -141 -168 -272 0
-120 -141 -169 -262 0
-120 -141 -171 -255 0
-120 -141 -173 -253 0
-120 -141 -182 -226 0
-120 -141 -184 -219 0
-120 -141 -189 -214 0
-120 -141 -191 -212 0
-120 -141 -198 -210 0
-120 -146 -167 -278 0
-120 -146 -170 -247 0
-120 -146 -171 -244 0
-120 -146 -173 -242 0
-120 -146 -177 -226 0
-120 -146 -178 -223 0
-120 -146 -180 -221 0
-120 -146 -193 -208 0
-120 -146 -198 -205 0
-120 -147 -167 -272 0
-120 -147 -169 -247 0
-120 -147 -171 -240 0
-120 -147 -173 -238 0
-120 -147 -176 -226 0
-120 -147 -180 -217 0
-120 -147 -189 -208 0
-120 -147 -191 -206 0
-120 -147 -198 -204 0
-120 -152 -167 -262 0
-120 -152 -168 -247 0
-120 -152 -171 -235 0
-120 -152 -173 -233 0
-120 -152 -175 -226 0
-120 -152 -178 -214 0
-120 -152 -184 -208 0
-120 -152 -186 -206 0
-120 -152 -198 -203 0
-120 -162 -175 -216 0
-120 -162 -176 -211 0
-120 -162 -177 -210 0
-120 -162 -182 -205 0
-120 -162 -183 -204 0
-120 -162 -188 -203 0
-121 -127 -203 -268 0
-121 -127 -204 -258 0
-121 -127 -205 -254 0
-121 -127 -210 -243 0
-121 -127 -211 -239 0
-121 -127 -216 -234 0
-121 -128 -203 -267 0
-121 -128 -204 -257 0
-121 -128 -205 -253 0
-121 -128 -210 -242 0
-121 -128 -211 -238 0
-121 -128 -216 -233 0
-121 -135 -175 -268 0
-121 -135 -176 -258 0
-121 -135 -177 -254 0
-121 -135 -182 -243 0
-121 -135 -183 -239 0
-121 -135 -188 -234 0
-121 -136 -175 -267 0
-121 -136 -176 -257 0
-121 -136 -177 -253 0
-121 -136 -182 -242 0
-121 -136 -183 -238 0
-121 -136 -188 -233 0
-121 -139 -169 -277 0
-121 -139 -170 -271 0
-121 -139 -171 -268 0
-121 -139 -172 -267 0
-121 -139 -188 -225 0
-121 -139 -189 -222 0
-121 -139 -193 -218 0
-121 -139 -194 -217 0
-121 -139 -197 -216 0
-121 -140 -168 -277 0
-121 -140 -170 -261 0
-121 -140 -171 -258 0
-121 -140 -172 -257 0
-121 -140 -183 -225 0
-121 -140 -184 -222 0
-121 -140 -185 -221 0
-121 -140 -193 -213 0
-121 -140 -197 -211 0
-121 -141 -168 -271 0
-121 -141 -169 -261 0
-121 -141 -171 -254 0
-121 -141 -172 -253 0
-121 -141 -182 -225 0
-121 -141 -184 -218 0
-121 -141 -185 -217 0
-121 -141 -189 -213 0
-121 -141 -197 -210 0
-121 -146 -167 -277 0
-121 -146 -170 -246 0
-121 -146 -171 -243 0
-121 -146 -172 -242 0
-121 -146 -177 -225 0
-121 -146 -178 -222 0
-121 -146 -179 -221 0
-121 -146 -193 -207 0
-121 -146 -197 -205 0
-121 -147 -167 -271 0
-121 -147 -169 -246 0
-121 -147 -171 -239 0
-121 -147 -172 -238 0
-121 -147 -176 -225 0
-121 -147 -178 -218 0
-121 -147 -179 -217 0
-121 -147 -189 -207 0
-121 -147 -190 -206 0
-121 -147 -197 -204 0
-121 -152 -167 -261 0
-121 -152 -168 -246 0
-121 -152 -171 -234 0
-121 -152 -172 -233 0
-121 -152 -175 -225 0
-121 -152 -178 -213 0
-121 -152 -179 -212 0
-121 -152 -184 -207 0
-121 -152 -185 -206 0
-121 -152 -197 -203 0
-121 -161 -175 -216 0
-121 -161 -176 -211 0
-121 -161 -177 -210 0
-121 -161 -182 -205 0
-121 -161 -183 -204 0
-121 -161 -188 -203 0
1 0
2 0
3 0
4 0
5 0
6 0
7 0
-8 0
-9 0
-10 0
-11 0
12 0
13 0
-14 0
-15 0
-16 0
-17 0
18 0
19 0
20 0
21 0
