p cnf 286 1290
-2 -3 -4 -22 -23 -31 0
-2 -3 -5 -22 -24 -32 0
-2 -3 -6 -22 -25 -33 0
-2 -3 -7 -22 -26 -34 0
-2 -4 -5 -23 -24 -39 0
-2 -4 -6 -23 -25 -40 0
-2 -4 -7 -23 -26 -41 0
-2 -5 -6 -24 -25 -46 0
-2 -5 -7 -24 -26 -47 0
-2 -6 -7 -25 -26 -52 0
-3 -4 -5 -31 -32 -39 0
-3 -4 -6 -31 -33 -40 0
-3 -4 -7 -31 -34 -41 0
-3 -5 -6 -32 -33 -46 0
-3 -5 -7 -32 -34 -47 0
-3 -6 -7 -33 -34 -52 0
-4 -5 -6 -39 -40 -46 0
-4 -5 -7 -39 -41 -47 0
-4 -6 -7 -40 -41 -52 0
-5 -6 -7 -46 -47 -52 0
8 9 10 61 62 64 0
8 9 11 61 63 65 0
8 10 11 62 63 66 0
9 10 11 64 65 66 0
13 14 15 31 32 39 0
13 14 16 31 33 40 0
13 14 17 31 34 41 0
13 14 18 31 35 42 0
13 14 19 31 36 43 0
13 14 20 31 37 44 0
13 14 21 31 38 45 0
13 15 16 32 33 46 0
13 15 17 32 34 47 0
13 15 18 32 35 48 0
13 15 19 32 36 49 0
13 15 20 32 37 50 0
13 15 21 32 38 51 0
13 16 17 33 34 52 0
13 16 18 33 35 53 0
13 16 19 33 36 54 0
13 16 20 33 37 55 0
13 16 21 33 38 56 0
13 17 18 34 35 57 0
13 17 19 34 36 58 0
13 17 20 34 37 59 0
13 17 21 34 38 60 0
13 18 19 35 36 61 0
13 18 20 35 37 62 0
13 18 21 35 38 63 0
13 19 20 36 37 64 0
13 19 21 36 38 65 0
13 20 21 37 38 66 0
14 15 16 39 40 46 0
14 15 17 39 41 47 0
14 15 18 39 42 48 0
14 15 19 39 43 49 0
14 15 20 39 44 50 0
14 15 21 39 45 51 0
14 16 17 40 41 52 0
14 16 18 40 42 53 0
14 16 19 40 43 54 0
14 16 20 40 44 55 0
14 16 21 40 45 56 0
14 17 18 41 42 57 0
14 17 19 41 43 58 0
14 17 20 41 44 59 0
14 17 21 41 45 60 0
14 18 19 42 43 61 0
14 18 20 42 44 62 0
14 18 21 42 45 63 0
14 19 20 43 44 64 0
14 19 21 43 45 65 0
14 20 21 44 45 66 0
15 16 17 46 47 52 0
15 16 18 46 48 53 0
15 16 19 46 49 54 0
15 16 20 46 50 55 0
15 16 21 46 51 56 0
15 17 18 47 48 57 0
15 17 19 47 49 58 0
15 17 20 47 50 59 0
15 17 21 47 51 60 0
15 18 19 48 49 61 0
15 18 20 48 50 62 0
15 18 21 48 51 63 0
15 19 20 49 50 64 0
15 19 21 49 51 65 0
15 20 21 50 51 66 0
16 17 18 52 53 57 0
16 17 19 52 54 58 0
16 17 20 52 55 59 0
16 17 21 52 56 60 0
16 18 19 53 54 61 0
16 18 20 53 55 62 0
16 18 21 53 56 63 0
16 19 20 54 55 64 0
16 19 21 54 56 65 0
16 20 21 55 56 66 0
17 18 19 57 58 61 0
17 18 20 57 59 62 0
17 18 21 57 60 63 0
17 19 20 58 59 64 0
17 19 21 58 60 65 0
17 20 21 59 60 66 0
-22 -24 -27 -32 -35 -48 0
-31 -34 -35 -41 -42 -57 0
-31 -35 -36 -42 -43 -61 0
-31 -35 -37 -42 -44 -62 0
-31 -35 -38 -42 -45 -63 0
-31 -36 -37 -43 -44 -64 0
-31 -36 -38 -43 -45 -65 0
-31 -37 -38 -44 -45 -66 0
-32 -33 -37 -46 -50 -55 0
-32 -33 -38 -46 -51 -56 0
-32 -35 -36 -48 -49 -61 0
-32 -35 -37 -48 -50 -62 0
-32 -35 -38 -48 -51 -63 0
-32 -36 -37 -49 -50 -64 0
-32 -36 -38 -49 -51 -65 0
-32 -37 -38 -50 -51 -66 0
-33 -34 -38 -52 -56 -60 0
-33 -35 -36 -53 -54 -61 0
-33 -35 -37 -53 -55 -62 0
-33 -35 -38 -53 -56 -63 0
-33 -36 -37 -54 -55 -64 0
-33 -36 -38 -54 -56 -65 0
-33 -37 -38 -55 -56 -66 0
-34 -35 -36 -57 -58 -61 0
-34 -35 -37 -57 -59 -62 0
-34 -35 -38 -57 -60 -63 0
-34 -36 -37 -58 -59 -64 0
-34 -36 -38 -58 -60 -65 0
-34 -37 -38 -59 -60 -66 0
-39 -41 -44 -47 -50 -59 0
-39 -42 -43 -48 -49 -61 0
-39 -42 -44 -48 -50 -62 0
-39 -42 -45 -48 -51 -63 0
-39 -43 -44 -49 -50 -64 0
-39 -43 -45 -49 -51 -65 0
-39 -44 -45 -50 -51 -66 0
-40 -42 -43 -53 -54 -61 0
-40 -42 -44 -53 -55 -62 0
-40 -42 -45 -53 -56 -63 0
-40 -43 -44 -54 -55 -64 0
-40 -43 -45 -54 -56 -65 0
-40 -44 -45 -55 -56 -66 0
-41 -42 -43 -57 -58 -61 0
-41 -42 -44 -57 -59 -62 0
-41 -42 -45 -57 -60 -63 0
-41 -43 -44 -58 -59 -64 0
-41 -43 -45 -58 -60 -65 0
-41 -44 -45 -59 -60 -66 0
-42 -43 -44 -61 -62 -64 0
-42 -43 -45 -61 -63 -65 0
-42 -44 -45 -62 -63 -66 0
-46 -48 -49 -53 -54 -61 0
-46 -48 -50 -53 -55 -62 0
-46 -48 -51 -53 -56 -63 0
-46 -49 -50 -54 -55 -64 0
-46 -49 -51 -54 -56 -65 0
-46 -50 -51 -55 -56 -66 0
-47 -48 -49 -57 -58 -61 0
-47 -48 -50 -57 -59 -62 0
-47 -48 -51 -57 -60 -63 0
-47 -49 -50 -58 -59 -64 0
-47 -49 -51 -58 -60 -65 0
-47 -50 -51 -59 -60 -66 0
-52 -53 -54 -57 -58 -61 0
-52 -53 -55 -57 -59 -62 0
-52 -53 -56 -57 -60 -63 0
-52 -54 -55 -58 -59 -64 0
-52 -54 -56 -58 -60 -65 0
-52 -55 -56 -59 -60 -66 0
-53 -54 -55 -61 -62 -64 0
-57 -58 -59 -61 -62 -64 0
-57 -58 -60 -61 -63 -65 0
67 -1 -2 -12 0
77 -2 -3 -22 0
78 -2 -4 -23 0
79 -2 -5 -24 0
80 -2 -6 -25 0
81 -2 -7 -26 0
86 -3 -4 -31 0
87 -3 -5 -32 0
88 -3 -6 -33 0
89 -3 -7 -34 0
94 -4 -5 -39 0
95 -4 -6 -40 0
96 -4 -7 -41 0
101 -5 -6 -46 0
102 -5 -7 -47 0
107 -6 -7 -52 0
116 8 9 61 0
117 8 10 62 0
118 8 11 63 0
119 9 10 64 0
120 9 11 65 0
121 10 11 66 0
131 13 14 31 0
132 13 15 32 0
133 13 16 33 0
134 13 17 34 0
135 13 18 35 0
136 13 19 36 0
137 13 20 37 0
138 13 21 38 0
139 14 15 39 0
140 14 16 40 0
141 14 17 41 0
142 14 18 42 0
143 14 19 43 0
144 14 20 44 0
145 14 21 45 0
146 15 16 46 0
147 15 17 47 0
148 15 18 48 0
149 15 19 49 0
150 15 20 50 0
151 15 21 51 0
152 16 17 52 0
153 16 18 53 0
154 16 19 54 0
155 16 20 55 0
156 16 21 56 0
157 17 18 57 0
158 17 19 58 0
159 17 20 59 0
160 17 21 60 0
161 18 19 61 0
162 18 20 62 0
163 18 21 63 0
164 19 20 64 0
165 19 21 65 0
166 20 21 66 0
167 22 23 31 0
168 22 24 32 0
169 22 25 33 0
170 -22 -26 -34 0
170 22 26 34 0
171 -22 -27 -35 0
171 22 27 35 0
172 -22 -28 -36 0
172 22 28 36 0
173 -22 -29 -37 0
173 22 29 37 0
174 -22 -30 -38 0
174 22 30 38 0
175 23 24 39 0
176 23 25 40 0
177 23 26 41 0
178 -23 -27 -42 0
178 23 27 42 0
179 -23 -28 -43 0
179 23 28 43 0
180 -23 -29 -44 0
180 23 29 44 0
181 -23 -30 -45 0
181 23 30 45 0
182 24 25 46 0
183 24 26 47 0
184 -24 -27 -48 0
184 24 27 48 0
185 24 28 49 0
186 -24 -29 -50 0
186 24 29 50 0
187 -24 -30 -51 0
187 24 30 51 0
188 25 26 52 0
189 -25 -27 -53 0
189 25 27 53 0
190 -25 -28 -54 0
190 25 28 54 0
191 -25 -29 -55 0
191 25 29 55 0
192 -25 -30 -56 0
192 25 30 56 0
193 -26 -27 -57 0
193 26 27 57 0
194 26 28 58 0
195 -26 -29 -59 0
195 26 29 59 0
196 -26 -30 -60 0
196 26 30 60 0
197 -27 -28 -61 0
198 -27 -29 -62 0
199 -27 -30 -63 0
200 -28 -29 -64 0
201 -28 -30 -65 0
202 -29 -30 -66 0
206 -31 -35 -42 0
207 -31 -36 -43 0
208 -31 -37 -44 0
209 -31 -38 -45 0
210 -32 -33 -46 0
212 -32 -35 -48 0
213 -32 -36 -49 0
214 -32 -37 -50 0
215 -32 -38 -51 0
217 -33 -35 -53 0
218 -33 -36 -54 0
219 -33 -37 -55 0
220 -33 -38 -56 0
221 -34 -35 -57 0
222 -34 -36 -58 0
222 34 36 58 0
223 -34 -37 -59 0
224 -34 -38 -60 0
224 34 38 60 0
225 -35 -36 -61 0
225 35 36 61 0
226 -35 -37 -62 0
227 -35 -38 -63 0
228 -36 -37 -64 0
229 -36 -38 -65 0
230 -37 -38 -66 0
230 37 38 66 0
233 -39 -42 -48 0
234 -39 -43 -49 0
235 -39 -44 -50 0
236 -39 -45 -51 0
238 -40 -42 -53 0
239 -40 -43 -54 0
240 -40 -44 -55 0
241 -40 -45 -56 0
242 -41 -42 -57 0
243 -41 -43 -58 0
244 -41 -44 -59 0
245 -41 -45 -60 0
246 -42 -43 -61 0
247 -42 -44 -62 0
248 -42 -45 -63 0
249 -43 -44 -64 0
250 -43 -45 -65 0
251 -44 -45 -66 0
253 -46 -48 -53 0
254 -46 -49 -54 0
254 46 49 54 0
255 -46 -50 -55 0
256 -46 -51 -56 0
256 46 51 56 0
257 -47 -48 -57 0
258 -47 -49 -58 0
259 -47 -50 -59 0
260 -47 -51 -60 0
261 -48 -49 -61 0
262 -48 -50 -62 0
262 48 50 62 0
263 -48 -51 -63 0
264 -49 -50 -64 0
265 -49 -51 -65 0
266 -50 -51 -66 0
267 -52 -53 -57 0
268 -52 -54 -58 0
269 -52 -55 -59 0
270 -52 -56 -60 0
271 -53 -54 -61 0
272 -53 -55 -62 0
273 -53 -56 -63 0
274 -54 -55 -64 0
275 -54 -56 -65 0
276 -55 -56 -66 0
277 -57 -58 -61 0
278 -57 -59 -62 0
279 -57 -60 -63 0
280 -58 -59 -64 0
281 -58 -60 -65 0
282 -59 -60 -66 0
283 -61 -62 -64 0
284 -61 -63 -65 0
286 -64 -65 -66 0
286 64 65 66 0
-67 -206 -254 -282 0
-67 -206 -255 -281 0
-67 -206 -256 -280 0
-67 -206 -258 -276 0
-67 -206 -259 -275 0
-67 -206 -260 -274 0
-67 -206 -264 -270 0
-67 -206 -265 -269 0
-67 -206 -266 -268 0
-67 -207 -253 -282 0
-67 -207 -255 -279 0
-67 -207 -256 -278 0
-67 -207 -257 -276 0
-67 -207 -259 -273 0
-67 -207 -260 -272 0
-67 -207 -262 -270 0
-67 -207 -263 -269 0
-67 -207 -266 -267 0
-67 -208 -253 -281 0
-67 -208 -254 -279 0
-67 -208 -256 -277 0
-67 -208 -257 -275 0
-67 -208 -258 -273 0
-67 -208 -261 -270 0
-67 -208 -263 -268 0
-67 -208 -265 -267 0
-67 -209 -253 -280 0
-67 -209 -254 -278 0
-67 -209 -255 -277 0
-67 -209 -257 -274 0
-67 -209 -258 -272 0
-67 -209 -259 -271 0
-67 -209 -261 -269 0
-67 -209 -262 -268 0
-67 -209 -264 -267 0
-67 -210 -246 -282 0
-67 -210 -247 -281 0
-67 -210 -250 -278 0
-67 -212 -239 -282 0
-67 -212 -240 -281 0
-67 -212 -241 -280 0
-67 -212 -243 -276 0
-67 -212 -244 -275 0
-67 -212 -245 -274 0
-67 -212 -249 -270 0
-67 -212 -250 -269 0
-67 -212 -251 -268 0
-67 -213 -238 -282 0
-67 -213 -240 -279 0
-67 -213 -241 -278 0
-67 -213 -242 -276 0
-67 -213 -245 -272 0
-67 -213 -247 -270 0
-67 -213 -248 -269 0
-67 -213 -251 -267 0
-67 -214 -238 -281 0
-67 -214 -239 -279 0
-67 -214 -241 -277 0
-67 -214 -242 -275 0
-67 -214 -243 -273 0
-67 -214 -246 -270 0
-67 -214 -248 -268 0
-67 -214 -250 -267 0
-67 -215 -238 -280 0
-67 -215 -239 -278 0
-67 -215 -240 -277 0
-67 -215 -242 -274 0
-67 -215 -244 -271 0
-67 -215 -246 -269 0
-67 -215 -247 -268 0
-67 -215 -249 -267 0
-67 -217 -234 -282 0
-67 -217 -235 -281 0
-67 -217 -236 -280 0
-67 -217 -244 -265 0
-67 -217 -245 -264 0
-67 -217 -249 -260 0
-67 -217 -250 -259 0
-67 -217 -251 -258 0
-67 -218 -233 -282 0
-67 -218 -235 -279 0
-67 -218 -236 -278 0
-67 -218 -242 -266 0
-67 -218 -244 -263 0
-67 -218 -245 -262 0
-67 -218 -247 -260 0
-67 -218 -251 -257 0
-67 -219 -233 -281 0
-67 -219 -234 -279 0
-67 -219 -236 -277 0
-67 -219 -246 -260 0
-67 -219 -248 -258 0
-67 -219 -250 -257 0
-67 -220 -233 -280 0
-67 -220 -234 -278 0
-67 -220 -235 -277 0
-67 -220 -243 -262 0
-67 -220 -244 -261 0
-67 -220 -246 -259 0
-67 -220 -247 -258 0
-67 -220 -249 -257 0
-67 -221 -234 -276 0
-67 -221 -235 -275 0
-67 -221 -236 -274 0
-67 -221 -240 -265 0
-67 -221 -241 -264 0
-67 -221 -249 -256 0
-67 -221 -250 -255 0
-67 -221 -251 -254 0
-67 -222 -233 -276 0
-67 -222 -235 -273 0
-67 -222 -236 -272 0
-67 -222 -240 -263 0
-67 -222 -241 -262 0
-67 -222 -247 -256 0
-67 -222 -251 -253 0
-67 -223 -233 -275 0
-67 -223 -234 -273 0
-67 -223 -236 -271 0
-67 -223 -238 -265 0
-67 -223 -241 -261 0
-67 -223 -246 -256 0
-67 -223 -250 -253 0
-67 -224 -233 -274 0
-67 -224 -234 -272 0
-67 -224 -235 -271 0
-67 -224 -239 -262 0
-67 -224 -240 -261 0
-67 -224 -246 -255 0
-67 -224 -247 -254 0
-67 -224 -249 -253 0
-67 -225 -235 -270 0
-67 -225 -236 -269 0
-67 -225 -240 -260 0
-67 -225 -241 -259 0
-67 -225 -244 -256 0
-67 -226 -234 -270 0
-67 -226 -236 -268 0
-67 -226 -239 -260 0
-67 -226 -241 -258 0
-67 -226 -245 -254 0
-67 -227 -234 -269 0
-67 -227 -239 -259 0
-67 -227 -240 -258 0
-67 -227 -243 -255 0
-67 -227 -244 -254 0
-67 -228 -233 -270 0
-67 -228 -236 -267 0
-67 -228 -238 -260 0
-67 -228 -241 -257 0
-67 -228 -242 -256 0
-67 -228 -245 -253 0
-67 -229 -233 -269 0
-67 -229 -235 -267 0
-67 -229 -238 -259 0
-67 -229 -240 -257 0
-67 -229 -242 -255 0
-67 -229 -244 -253 0
-67 -230 -233 -268 0
-67 -230 -238 -258 0
-67 -230 -242 -254 0
-67 -230 -243 -253 0
-77 -139 -267 -286 0
-77 -139 -273 -280 0
-77 -140 -257 -286 0
-77 -141 -253 -286 0
-77 -145 -253 -280 0
-77 -146 -242 -286 0
-77 -147 -238 -286 0
-77 -147 -250 -272 0
-77 -150 -250 -267 0
-77 -152 -233 -286 0
-77 -152 -249 -263 0
-77 -152 -250 -262 0
-77 -156 -235 -277 0
-77 -156 -242 -264 0
-77 -159 -250 -253 0
-77 -160 -238 -264 0
-77 -161 -235 -270 0
-77 -161 -236 -269 0
-77 -161 -240 -260 0
-77 -161 -241 -259 0
-77 -161 -244 -256 0
-77 -162 -239 -260 0
-77 -162 -243 -256 0
-77 -164 -233 -270 0
-77 -164 -238 -260 0
-77 -164 -242 -256 0
-77 -164 -245 -253 0
-77 -165 -233 -269 0
-77 -165 -235 -267 0
-77 -165 -240 -257 0
-77 -165 -242 -255 0
-77 -165 -244 -253 0
-77 -166 -242 -254 0
-78 -132 -267 -286 0
-78 -132 -274 -279 0
-78 -133 -257 -286 0
-78 -134 -253 -286 0
-78 -138 -254 -278 0
-78 -146 -221 -286 0
-78 -147 -217 -286 0
-78 -152 -212 -286 0
-78 -152 -227 -264 0
-78 -152 -228 -263 0
-78 -161 -214 -270 0
-78 -161 -215 -269 0
-78 -161 -219 -260 0
-78 -161 -220 -259 0
-78 -161 -223 -256 0
-78 -161 -224 -255 0
-78 -163 -214 -268 0
-78 -163 -219 -258 0
-78 -164 -212 -270 0
-78 -164 -215 -267 0
-78 -164 -217 -260 0
-78 -164 -220 -257 0
-78 -164 -224 -253 0
-78 -165 -212 -269 0
-78 -165 -214 -267 0
-78 -165 -217 -259 0
-78 -165 -219 -257 0
-78 -165 -221 -255 0
-78 -165 -223 -253 0
-79 -131 -267 -286 0
-79 -133 -242 -286 0
-79 -133 -250 -278 0
-79 -134 -238 -286 0
-79 -134 -250 -272 0
-79 -137 -250 -267 0
-79 -138 -249 -267 0
-79 -140 -221 -286 0
-79 -141 -217 -286 0
-79 -152 -206 -286 0
-79 -152 -230 -246 0
-79 -155 -221 -250 0
-79 -156 -221 -249 0
-79 -156 -228 -242 0
-79 -157 -218 -251 0
-79 -158 -217 -251 0
-79 -160 -228 -238 0
-79 -161 -208 -270 0
-79 -161 -209 -269 0
-79 -161 -220 -244 0
-79 -161 -223 -241 0
-79 -161 -224 -240 0
-79 -162 -209 -268 0
-79 -163 -207 -269 0
-79 -163 -218 -244 0
-79 -164 -209 -267 0
-79 -164 -217 -245 0
-79 -164 -220 -242 0
-79 -164 -224 -238 0
-79 -165 -206 -269 0
-79 -165 -208 -267 0
-79 -165 -217 -244 0
-79 -165 -219 -242 0
-79 -165 -221 -240 0
-79 -165 -223 -238 0
-79 -166 -206 -268 0
-79 -166 -217 -243 0
-79 -166 -222 -238 0
-80 -131 -257 -286 0
-80 -132 -242 -286 0
-80 -132 -245 -283 0
-80 -132 -249 -279 0
-80 -134 -233 -286 0
-80 -134 -247 -265 0
-80 -134 -250 -262 0
-80 -134 -251 -261 0
-80 -137 -246 -260 0
-80 -137 -250 -257 0
-80 -139 -221 -286 0
-80 -139 -227 -280 0
-80 -141 -212 -286 0
-80 -145 -212 -280 0
-80 -147 -206 -286 0
-80 -147 -226 -250 0
-80 -150 -221 -250 0
-80 -150 -224 -246 0
-80 -159 -212 -250 0
-80 -160 -212 -249 0
-80 -161 -208 -260 0
-80 -161 -209 -259 0
-80 -161 -214 -245 0
-80 -161 -215 -244 0
-80 -161 -223 -236 0
-80 -162 -213 -245 0
-80 -162 -215 -243 0
-80 -163 -214 -243 0
-80 -163 -222 -235 0
-80 -164 -206 -260 0
-80 -164 -212 -245 0
-80 -164 -215 -242 0
-80 -164 -224 -233 0
-80 -165 -206 -259 0
-80 -165 -208 -257 0
-80 -165 -212 -244 0
-80 -165 -214 -242 0
-80 -165 -221 -235 0
-80 -165 -223 -233 0
-81 -131 -253 -286 0
-81 -132 -238 -286 0
-81 -132 -249 -273 0
-81 -132 -251 -271 0
-81 -133 -233 -286 0
-81 -133 -249 -263 0
-81 -133 -251 -261 0
-81 -137 -250 -253 0
-81 -138 -249 -253 0
-81 -139 -217 -286 0
-81 -140 -212 -286 0
-81 -146 -206 -286 0
-81 -146 -226 -250 0
-81 -151 -217 -249 0
-81 -155 -212 -250 0
-81 -156 -212 -249 0
-81 -161 -208 -256 0
-81 -161 -209 -255 0
-81 -161 -214 -241 0
-81 -161 -215 -240 0
-81 -161 -219 -236 0
-81 -161 -220 -235 0
-81 -162 -213 -241 0
-81 -162 -215 -239 0
-81 -162 -220 -234 0
-81 -163 -207 -255 0
-81 -163 -208 -254 0
-81 -163 -213 -240 0
-81 -163 -214 -239 0
-81 -164 -206 -256 0
-81 -164 -209 -253 0
-81 -164 -212 -241 0
-81 -164 -215 -238 0
-81 -164 -220 -233 0
-81 -165 -208 -253 0
-81 -165 -212 -240 0
-81 -165 -214 -238 0
-81 -165 -217 -235 0
-81 -165 -219 -233 0
-81 -166 -213 -238 0
-86 -146 -193 -286 0
-86 -147 -189 -286 0
-86 -147 -201 -272 0
-86 -148 -188 -286 0
-86 -152 -184 -286 0
-86 -153 -183 -286 0
-86 -157 -182 -286 0
-86 -159 -182 -284 0
-86 -161 -187 -269 0
-86 -161 -195 -256 0
-86 -162 -194 -256 0
-86 -163 -185 -269 0
-86 -164 -189 -260 0
-86 -164 -193 -256 0
-86 -164 -196 -253 0
-86 -165 -184 -269 0
-86 -165 -186 -267 0
-86 -165 -189 -259 0
-86 -165 -191 -257 0
-86 -165 -195 -253 0
-86 -166 -183 -271 0
-86 -166 -184 -268 0
-87 -140 -193 -286 0
-87 -140 -197 -282 0
-87 -140 -200 -279 0
-87 -140 -202 -277 0
-87 -141 -189 -286 0
-87 -142 -188 -286 0
-87 -144 -197 -270 0
-87 -144 -201 -267 0
-87 -152 -178 -286 0
-87 -152 -198 -250 0
-87 -153 -177 -286 0
-87 -154 -199 -244 0
-87 -154 -202 -242 0
-87 -155 -193 -250 0
-87 -155 -197 -245 0
-87 -155 -199 -243 0
-87 -155 -201 -242 0
-87 -156 -197 -244 0
-87 -156 -198 -243 0
-87 -156 -200 -242 0
-87 -157 -176 -286 0
-87 -157 -191 -250 0
-87 -158 -198 -241 0
-87 -158 -202 -238 0
-87 -159 -197 -241 0
-87 -159 -199 -239 0
-87 -160 -197 -240 0
-87 -160 -198 -239 0
-87 -161 -176 -282 0
-87 -161 -181 -269 0
-87 -161 -188 -251 0
-87 -161 -191 -245 0
-87 -161 -192 -244 0
-87 -161 -195 -241 0
-87 -162 -188 -250 0
-87 -162 -194 -241 0
-87 -162 -196 -239 0
-87 -163 -180 -268 0
-87 -164 -181 -267 0
-87 -164 -188 -248 0
-87 -164 -189 -245 0
-87 -164 -196 -238 0
-87 -165 -178 -269 0
-87 -165 -180 -267 0
-87 -165 -188 -247 0
-87 -165 -195 -238 0
-87 -166 -176 -277 0
-87 -166 -188 -246 0
-87 -166 -190 -242 0
-88 -139 -193 -286 0
-88 -139 -197 -282 0
-88 -139 -199 -280 0
-88 -139 -202 -277 0
-88 -141 -184 -286 0
-88 -142 -183 -286 0
-88 -145 -186 -277 0
-88 -147 -178 -286 0
-88 -147 -198 -250 0
-88 -147 -201 -247 0
-88 -148 -177 -286 0
-88 -157 -175 -286 0
-88 -160 -198 -234 0
-88 -162 -183 -250 0
-88 -164 -181 -257 0
-88 -164 -184 -245 0
-88 -165 -178 -259 0
-88 -165 -193 -235 0
-88 -165 -195 -233 0
-88 -166 -193 -234 0
-89 -139 -189 -286 0
-89 -139 -197 -276 0
-89 -139 -198 -275 0
-89 -139 -199 -274 0
-89 -139 -202 -271 0
-89 -140 -184 -286 0
-89 -142 -182 -286 0
-89 -146 -178 -286 0
-89 -146 -198 -250 0
-89 -146 -200 -248 0
-89 -146 -202 -246 0
-89 -148 -176 -286 0
-89 -148 -191 -250 0
-89 -150 -189 -250 0
-89 -150 -192 -246 0
-89 -153 -175 -286 0
-89 -153 -186 -250 0
-89 -155 -184 -250 0
-89 -156 -186 -246 0
-89 -161 -175 -276 0
-89 -161 -181 -255 0
-89 -161 -182 -251 0
-89 -161 -187 -240 0
-89 -162 -182 -250 0
-89 -163 -190 -235 0
-89 -164 -181 -253 0
-89 -165 -178 -255 0
-89 -165 -184 -240 0
-89 -165 -186 -238 0
-89 -165 -189 -235 0
-89 -166 -175 -271 0
-89 -166 -182 -246 0
-89 -166 -184 -239 0
-94 -133 -193 -286 0
-94 -134 -189 -286 0
-94 -134 -197 -276 0
-94 -135 -188 -286 0
-94 -152 -171 -286 0
-94 -153 -170 -286 0
-94 -157 -169 -286 0
-94 -161 -192 -223 0
-94 -161 -195 -220 0
-94 -161 -196 -219 0
-94 -162 -194 -220 0
-94 -163 -170 -274 0
-94 -164 -169 -279 0
-94 -164 -189 -224 0
-94 -165 -171 -269 0
-94 -165 -173 -267 0
-94 -165 -189 -223 0
-94 -165 -191 -221 0
-94 -165 -195 -217 0
-94 -166 -169 -277 0
-94 -166 -171 -268 0
-94 -166 -189 -222 0
-95 -132 -193 -286 0
-95 -134 -184 -286 0
-95 -135 -183 -286 0
-95 -147 -171 -286 0
-95 -148 -170 -286 0
-95 -157 -168 -286 0
-95 -161 -173 -260 0
-95 -161 -186 -224 0
-95 -161 -195 -215 0
-95 -162 -172 -260 0
-95 -162 -194 -215 0
-95 -162 -196 -213 0
-95 -163 -194 -214 0
-95 -163 -195 -213 0
-95 -164 -174 -257 0
-95 -164 -183 -227 0
-95 -164 -184 -224 0
-95 -164 -193 -215 0
-95 -164 -196 -212 0
-95 -165 -184 -223 0
-95 -165 -186 -221 0
-95 -165 -193 -214 0
-95 -165 -195 -212 0
-95 -166 -168 -277 0
-95 -166 -172 -257 0
-95 -166 -184 -222 0
-95 -166 -185 -221 0
-95 -166 -193 -213 0
-96 -132 -189 -286 0
-96 -132 -199 -274 0
-96 -132 -200 -273 0
-96 -133 -184 -286 0
-96 -135 -182 -286 0
-96 -146 -171 -286 0
-96 -148 -169 -286 0
-96 -153 -168 -286 0
-96 -156 -197 -214 0
-96 -161 -173 -256 0
-96 -161 -174 -255 0
-96 -161 -182 -230 0
-96 -161 -191 -215 0
-96 -161 -192 -214 0
-96 -162 -172 -256 0
-96 -162 -190 -215 0
-96 -162 -192 -213 0
-96 -163 -190 -214 0
-96 -163 -191 -213 0
-96 -164 -171 -256 0
-96 -164 -184 -220 0
-96 -164 -187 -217 0
-96 -164 -189 -215 0
-96 -164 -192 -212 0
-96 -165 -171 -255 0
-96 -165 -182 -226 0
-96 -165 -186 -217 0
-96 -165 -189 -214 0
-96 -165 -191 -212 0
-96 -166 -182 -225 0
-96 -166 -185 -217 0
-96 -166 -189 -213 0
-101 -131 -193 -286 0
-101 -131 -198 -281 0
-101 -131 -199 -280 0
-101 -131 -200 -279 0
-101 -131 -202 -277 0
-101 -134 -178 -286 0
-101 -134 -197 -251 0
-101 -135 -177 -286 0
-101 -137 -193 -250 0
-101 -141 -171 -286 0
-101 -142 -170 -286 0
-101 -145 -197 -223 0
-101 -157 -167 -286 0
-101 -157 -173 -250 0
-101 -161 -170 -251 0
-101 -161 -195 -209 0
-101 -163 -195 -207 0
-101 -165 -177 -226 0
-101 -165 -178 -223 0
-101 -165 -180 -221 0
-101 -165 -193 -208 0
-101 -166 -170 -246 0
-102 -131 -189 -286 0
-102 -131 -197 -276 0
-102 -131 -198 -275 0
-102 -131 -199 -274 0
-102 -133 -178 -286 0
-102 -133 -198 -250 0
-102 -133 -201 -247 0
-102 -133 -202 -246 0
-102 -135 -176 -286 0
-102 -137 -189 -250 0
-102 -137 -192 -246 0
-102 -140 -171 -286 0
-102 -140 -197 -230 0
-102 -142 -169 -286 0
-102 -153 -167 -286 0
-102 -153 -173 -250 0
-102 -156 -173 -246 0
-102 -161 -169 -251 0
-102 -161 -174 -240 0
-102 -161 -180 -220 0
-102 -161 -192 -208 0
-102 -163 -169 -249 0
-102 -164 -167 -273 0
-102 -164 -178 -220 0
-102 -164 -181 -217 0
-102 -165 -178 -219 0
-102 -165 -180 -217 0
-102 -165 -189 -208 0
-107 -131 -184 -286 0
-107 -132 -178 -286 0
-107 -132 -198 -250 0
-107 -135 -175 -286 0
-107 -135 -186 -250 0
-107 -137 -184 -250 0
-107 -139 -171 -286 0
-107 -142 -168 -286 0
-107 -148 -167 -286 0
-107 -148 -173 -250 0
-107 -150 -171 -250 0
-107 -161 -181 -214 0
-107 -162 -168 -250 0
-107 -162 -172 -236 0
-107 -163 -179 -214 0
-107 -164 -181 -212 0
-107 -165 -168 -247 0
-107 -165 -171 -235 0
-107 -165 -178 -214 0
-107 -165 -184 -208 0
-107 -166 -185 -206 0
-116 -131 -183 -276 0
-116 -131 -186 -270 0
-116 -131 -188 -266 0
-116 -131 -191 -260 0
-116 -132 -176 -282 0
-116 -132 -177 -276 0
-116 -132 -188 -251 0
-116 -132 -196 -240 0
-116 -133 -175 -282 0
-116 -133 -177 -266 0
-116 -133 -180 -260 0
-116 -133 -183 -251 0
-116 -134 -175 -276 0
-116 -134 -176 -266 0
-116 -134 -180 -256 0
-116 -134 -182 -251 0
-116 -134 -187 -240 0
-116 -137 -175 -270 0
-116 -137 -176 -260 0
-116 -138 -175 -269 0
-116 -138 -176 -259 0
-116 -138 -182 -244 0
-116 -139 -173 -270 0
-116 -139 -188 -230 0
-116 -139 -191 -224 0
-116 -140 -174 -259 0
-116 -140 -183 -230 0
-116 -140 -196 -214 0
-116 -141 -168 -276 0
-116 -141 -182 -230 0
-116 -144 -168 -270 0
-116 -144 -169 -260 0
-116 -144 -182 -224 0
-116 -144 -183 -220 0
-116 -144 -188 -215 0
-116 -145 -170 -255 0
-116 -145 -183 -219 0
-116 -145 -188 -214 0
-116 -146 -167 -282 0
-116 -146 -170 -251 0
-116 -146 -177 -230 0
-116 -146 -180 -224 0
-116 -146 -181 -223 0
-116 -146 -195 -209 0
-116 -147 -167 -276 0
-116 -147 -169 -251 0
-116 -147 -176 -230 0
-116 -147 -181 -219 0
-116 -150 -170 -241 0
-116 -150 -176 -224 0
-116 -151 -176 -223 0
-116 -151 -177 -219 0
-116 -152 -167 -266 0
-116 -152 -168 -251 0
-116 -152 -175 -230 0
-116 -152 -187 -208 0
-116 -155 -175 -224 0
-116 -155 -183 -209 0
-116 -156 -168 -244 0
-116 -156 -175 -223 0
-116 -156 -177 -214 0
-116 -159 -182 -209 0
-116 -160 -168 -240 0
-116 -160 -175 -219 0
-117 -132 -188 -250 0
-117 -133 -183 -250 0
-117 -136 -177 -256 0
-117 -136 -182 -245 0
-117 -136 -183 -241 0
-117 -136 -188 -236 0
-117 -140 -170 -265 0
-117 -143 -169 -260 0
-117 -143 -183 -220 0
-117 -145 -168 -268 0
-117 -146 -170 -250 0
-117 -147 -169 -250 0
-117 -147 -172 -241 0
-117 -149 -170 -241 0
-117 -151 -169 -243 0
-117 -151 -176 -222 0
-117 -152 -168 -250 0
-117 -154 -170 -236 0
-117 -154 -183 -209 0
-117 -156 -170 -234 0
-117 -158 -167 -256 0
-117 -158 -168 -241 0
-117 -158 -169 -236 0
-117 -158 -176 -215 0
-117 -160 -176 -213 0
-117 -160 -182 -207 0
-118 -131 -188 -264 0
-118 -132 -188 -249 0
-118 -133 -183 -249 0
-118 -134 -182 -249 0
-118 -136 -175 -269 0
-118 -136 -182 -244 0
-118 -136 -188 -235 0
-118 -137 -182 -243 0
-118 -139 -188 -228 0
-118 -140 -186 -222 0
-118 -141 -172 -255 0
-118 -143 -170 -255 0
-118 -143 -182 -223 0
-118 -143 -188 -214 0
-118 -146 -170 -249 0
-118 -147 -167 -274 0
-118 -147 -169 -249 0
-118 -149 -167 -269 0
-118 -149 -176 -223 0
-118 -149 -177 -219 0
-118 -154 -168 -244 0
-118 -154 -177 -214 0
-118 -154 -183 -208 0
-118 -155 -170 -234 0
-118 -158 -175 -219 0
-118 -158 -182 -208 0
-118 -159 -167 -254 0
-118 -159 -175 -218 0
-119 -131 -182 -279 0
-119 -131 -184 -270 0
-119 -131 -188 -263 0
-119 -131 -189 -260 0
-119 -132 -196 -238 0
-119 -133 -181 -257 0
-119 -133 -184 -245 0
-119 -133 -196 -233 0
-119 -134 -178 -256 0
-119 -134 -184 -241 0
-119 -134 -189 -236 0
-119 -138 -175 -267 0
-119 -138 -176 -257 0
-119 -139 -174 -267 0
-119 -139 -188 -227 0
-119 -141 -182 -227 0
-119 -141 -189 -215 0
-119 -142 -170 -256 0
-119 -145 -168 -267 0
-119 -145 -169 -257 0
-119 -145 -182 -221 0
-119 -145 -183 -217 0
-119 -145 -188 -212 0
-119 -147 -167 -273 0
-119 -147 -174 -238 0
-119 -148 -167 -270 0
-119 -148 -177 -220 0
-119 -151 -177 -217 0
-119 -152 -174 -233 0
-119 -152 -175 -227 0
-119 -152 -181 -212 0
-119 -153 -167 -260 0
-119 -153 -170 -236 0
-119 -153 -177 -215 0
-119 -153 -183 -209 0
-119 -156 -167 -257 0
-119 -156 -168 -242 0
-119 -156 -177 -212 0
-119 -156 -183 -206 0
-119 -157 -175 -220 0
-119 -157 -176 -215 0
-119 -160 -167 -253 0
-119 -160 -175 -217 0
-119 -160 -182 -206 0
-120 -131 -182 -278 0
-120 -131 -183 -272 0
-120 -131 -188 -262 0
-120 -131 -195 -253 0
-120 -132 -176 -278 0
-120 -132 -178 -269 0
-120 -132 -180 -267 0
-120 -132 -188 -247 0
-120 -132 -189 -244 0
-120 -132 -191 -242 0
-120 -132 -193 -240 0
-120 -132 -195 -238 0
-120 -133 -175 -278 0
-120 -133 -177 -262 0
-120 -133 -180 -257 0
-120 -133 -184 -244 0
-120 -133 -193 -235 0
-120 -134 -175 -272 0
-120 -134 -176 -262 0
-120 -134 -182 -247 0
-120 -134 -184 -240 0
-120 -134 -189 -235 0
-120 -134 -191 -233 0
-120 -135 -176 -259 0
-120 -135 -182 -244 0
-120 -137 -183 -238 0
-120 -139 -173 -267 0
-120 -139 -188 -226 0
-120 -140 -168 -278 0
-120 -140 -170 -262 0
-120 -140 -171 -259 0
-120 -140 -173 -257 0
-120 -140 -183 -226 0
-120 -140 -186 -221 0
-120 -140 -195 -212 0
-120 -141 -168 -272 0
-120 -141 -182 -226 0
-120 -141 -189 -214 0
-120 -142 -169 -259 0
-120 -142 -170 -255 0
-120 -142 -182 -223 0
-120 -142 -183 -219 0
-120 -142 -188 -214 0
-120 -144 -168 -267 0
-120 -144 -169 -257 0
-120 -144 -170 -253 0
-120 -144 -188 -212 0
-120 -146 -167 -278 0
-120 -146 -170 -247 0
-120 -146 -171 -244 0
-120 -146 -173 -242 0
-120 -146 -177 -226 0
-120 -146 -178 -223 0
-120 -146 -180 -221 0
-120 -146 -193 -208 0
-120 -146 -195 -206 0
-120 -147 -167 -272 0
-120 -147 -171 -240 0
-120 -147 -176 -226 0
-120 -147 -180 -217 0
-120 -147 -189 -208 0
-120 -148 -167 -269 0
-120 -148 -176 -223 0
-120 -148 -177 -219 0
-120 -150 -167 -267 0
-120 -150 -170 -238 0
-120 -150 -176 -221 0
-120 -150 -177 -217 0
-120 -152 -171 -235 0
-120 -152 -180 -212 0
-120 -152 -184 -208 0
-120 -153 -170 -235 0
-120 -155 -167 -257 0
-120 -155 -168 -242 0
-120 -155 -175 -221 0
-120 -155 -177 -212 0
-120 -155 -183 -206 0
-120 -159 -167 -253 0
-120 -159 -175 -217 0
-120 -159 -182 -206 0
-121 -131 -188 -261 0
-121 -132 -176 -277 0
-121 -132 -190 -242 0
-121 -133 -177 -261 0
-121 -133 -179 -257 0
-121 -136 -175 -267 0
-121 -136 -176 -257 0
-121 -136 -177 -253 0
-121 -136 -183 -238 0
-121 -136 -188 -233 0
-121 -139 -188 -225 0
-121 -140 -168 -277 0
-121 -141 -168 -271 0
-121 -143 -168 -267 0
-121 -143 -169 -257 0
-121 -143 -170 -253 0
-121 -143 -182 -221 0
-121 -143 -183 -217 0
-121 -143 -188 -212 0
-121 -146 -170 -246 0
-121 -149 -167 -267 0
-121 -149 -169 -242 0
-121 -149 -176 -221 0
-121 -149 -177 -217 0
-121 -149 -188 -206 0
-121 -152 -179 -212 0
-121 -154 -167 -257 0
-121 -154 -168 -242 0
-121 -154 -170 -233 0
-121 -154 -175 -221 0
-121 -154 -177 -212 0
-121 -154 -183 -206 0
-121 -158 -167 -253 0
-121 -158 -168 -238 0
-121 -158 -169 -233 0
-121 -158 -175 -217 0
-121 -158 -176 -212 0
-121 -158 -182 -206 0
1 0
2 0
3 0
4 0
5 0
6 0
7 0
-8 0
-9 0
-10 0
-11 0
12 0
-13 0
-14 0
-15 0
-16 0
-17 0
-18 0
-19 0
-20 0
-21 0
