p cnf 286 52
-2 -3 -4 -22 -23 -31 0
-2 -3 -5 -22 -24 -32 0
-2 -3 -6 -22 -25 -33 0
-2 -3 -7 -22 -26 -34 0
-2 -4 -5 -23 -24 -39 0
-2 -4 -6 -23 -25 -40 0
-2 -4 -7 -23 -26 -41 0
-2 -5 -6 -24 -25 -46 0
-2 -5 -7 -24 -26 -47 0
-2 -6 -7 -25 -26 -52 0
-3 -4 -5 -31 -32 -39 0
-3 -4 -6 -31 -33 -40 0
-3 -4 -7 -31 -34 -41 0
-3 -5 -6 -32 -33 -46 0
-3 -5 -7 -32 -34 -47 0
-3 -6 -7 -33 -34 -52 0
-4 -5 -6 -39 -40 -46 0
-4 -5 -7 -39 -41 -47 0
-4 -6 -7 -40 -41 -52 0
-5 -6 -7 -46 -47 -52 0
12 13 14 22 23 31 0
12 13 15 22 24 32 0
12 13 16 22 25 33 0
12 13 17 22 26 34 0
12 14 15 23 24 39 0
12 14 16 23 25 40 0
12 14 17 23 26 41 0
12 15 16 24 25 46 0
12 15 17 24 26 47 0
12 16 17 25 26 52 0
13 14 15 31 32 39 0
13 14 16 31 33 40 0
13 14 17 31 34 41 0
13 15 16 32 33 46 0
13 15 17 32 34 47 0
13 16 17 33 34 52 0
14 15 16 39 40 46 0
14 15 17 39 41 47 0
14 16 17 40 41 52 0
15 16 17 46 47 52 0
2 0
3 0
4 0
5 0
6 0
7 0
-12 0
-13 0
-14 0
-15 0
-16 0
-17 0
