p cnf 286 1839
-1 -2 -3 -12 -13 -22 0
-2 -4 -5 -23 -24 -39 0
-3 -4 -6 -31 -33 -40 0
-3 -4 -7 -31 -34 -41 0
-3 -5 -6 -32 -33 -46 0
-3 -5 -7 -32 -34 -47 0
-3 -6 -7 -33 -34 -52 0
-4 -6 -7 -40 -41 -52 0
-5 -6 -7 -46 -47 -52 0
8 9 10 61 62 64 0
8 9 11 61 63 65 0
8 10 11 62 63 66 0
9 10 11 64 65 66 0
-12 -18 -19 -27 -28 -61 0
-12 -18 -20 -27 -29 -62 0
-12 -19 -20 -28 -29 -64 0
-13 -18 -19 -35 -36 -61 0
-13 -18 -20 -35 -37 -62 0
-13 -19 -20 -36 -37 -64 0
14 15 16 39 40 46 0
14 15 17 39 41 47 0
14 15 21 39 45 51 0
14 16 17 40 41 52 0
14 16 21 40 45 56 0
14 17 21 41 45 60 0
15 16 17 46 47 52 0
15 16 21 46 51 56 0
15 17 21 47 51 60 0
16 17 21 52 56 60 0
-18 -19 -20 -61 -62 -64 0
22 25 26 33 34 52 0
22 25 27 33 35 53 0
22 25 28 33 36 54 0
22 25 29 33 37 55 0
22 25 30 33 38 56 0
22 26 27 34 35 57 0
22 26 28 34 36 58 0
22 26 29 34 37 59 0
22 26 30 34 38 60 0
22 27 28 35 36 61 0
22 27 29 35 37 62 0
22 27 30 35 38 63 0
22 28 29 36 37 64 0
22 28 30 36 38 65 0
22 29 30 37 38 66 0
-23 -27 -30 -42 -45 -63 0
-23 -28 -30 -43 -45 -65 0
-23 -29 -30 -44 -45 -66 0
-24 -27 -30 -48 -51 -63 0
-24 -28 -30 -49 -51 -65 0
-24 -29 -30 -50 -51 -66 0
25 26 27 52 53 57 0
25 26 28 52 54 58 0
25 26 29 52 55 59 0
25 26 30 52 56 60 0
25 27 28 53 54 61 0
25 27 29 53 55 62 0
25 27 30 53 56 63 0
25 28 29 54 55 64 0
25 28 30 54 56 65 0
25 29 30 55 56 66 0
26 27 28 57 58 61 0
26 27 29 57 59 62 0
26 27 30 57 60 63 0
26 28 29 58 59 64 0
26 28 30 58 60 65 0
26 29 30 59 60 66 0
31 32 35 39 42 48 0
31 32 36 39 43 49 0
31 32 37 39 44 50 0
31 33 35 40 42 53 0
31 33 36 40 43 54 0
31 33 37 40 44 55 0
31 34 35 41 42 57 0
31 34 36 41 43 58 0
31 34 37 41 44 59 0
31 35 36 42 43 61 0
31 35 37 42 44 62 0
-31 -35 -38 -42 -45 -63 0
31 35 38 42 45 63 0
31 36 37 43 44 64 0
-31 -36 -38 -43 -45 -65 0
-31 -37 -38 -44 -45 -66 0
32 33 35 46 48 53 0
32 33 36 46 49 54 0
32 33 37 46 50 55 0
32 34 35 47 48 57 0
32 34 36 47 49 58 0
32 34 37 47 50 59 0
32 35 36 48 49 61 0
32 35 37 48 50 62 0
-32 -35 -38 -48 -51 -63 0
32 35 38 48 51 63 0
32 36 37 49 50 64 0
-32 -36 -38 -49 -51 -65 0
-32 -37 -38 -50 -51 -66 0
32 37 38 50 51 66 0
33 35 36 53 54 61 0
-33 -35 -38 -53 -56 -63 0
33 36 37 54 55 64 0
-33 -36 -38 -54 -56 -65 0
33 36 38 54 56 65 0
-33 -37 -38 -55 -56 -66 0
33 37 38 55 56 66 0
34 35 37 57 59 62 0
-34 -35 -38 -57 -60 -63 0
34 36 37 58 59 64 0
-34 -36 -38 -58 -60 -65 0
-34 -37 -38 -59 -60 -66 0
39 42 43 48 49 61 0
39 42 44 48 50 62 0
39 43 44 49 50 64 0
40 41 44 52 55 59 0
-40 -42 -43 -53 -54 -61 0
40 42 43 53 54 61 0
-40 -42 -44 -53 -55 -62 0
40 42 44 53 55 62 0
-40 -42 -45 -53 -56 -63 0
-40 -43 -44 -54 -55 -64 0
40 43 44 54 55 64 0
-40 -43 -45 -54 -56 -65 0
-40 -44 -45 -55 -56 -66 0
-41 -42 -43 -57 -58 -61 0
41 42 43 57 58 61 0
-41 -42 -44 -57 -59 -62 0
-41 -42 -45 -57 -60 -63 0
-41 -43 -44 -58 -59 -64 0
-41 -43 -45 -58 -60 -65 0
-41 -44 -45 -59 -60 -66 0
-42 -43 -45 -61 -63 -65 0
-42 -44 -45 -62 -63 -66 0
-43 -44 -45 -64 -65 -66 0
-46 -48 -49 -53 -54 -61 0
46 48 49 53 54 61 0
-46 -48 -50 -53 -55 -62 0
46 48 50 53 55 62 0
-46 -48 -51 -53 -56 -63 0
-46 -49 -50 -54 -55 -64 0
46 49 50 54 55 64 0
-46 -49 -51 -54 -56 -65 0
-46 -50 -51 -55 -56 -66 0
-47 -48 -49 -57 -58 -61 0
47 48 49 57 58 61 0
-47 -48 -50 -57 -59 -62 0
47 48 50 57 59 62 0
-47 -48 -51 -57 -60 -63 0
-47 -49 -50 -58 -59 -64 0
47 49 50 58 59 64 0
-47 -49 -51 -58 -60 -65 0
-47 -50 -51 -59 -60 -66 0
-48 -49 -51 -61 -63 -65 0
-48 -50 -51 -62 -63 -66 0
-49 -50 -51 -64 -65 -66 0
-52 -53 -54 -57 -58 -61 0
52 53 54 57 58 61 0
-52 -53 -55 -57 -59 -62 0
-52 -54 -55 -58 -59 -64 0
52 54 55 58 59 64 0
-52 -54 -56 -58 -60 -65 0
-53 -54 -56 -61 -63 -65 0
-53 -55 -56 -62 -63 -66 0
-54 -55 -56 -64 -65 -66 0
-57 -58 -60 -61 -63 -65 0
-57 -59 -60 -62 -63 -66 0
-58 -59 -60 -64 -65 -66 0
67 -1 -2 -12 0
68 -1 -3 -13 0
78 -2 -4 -23 0
79 -2 -5 -24 0
86 -3 -4 -31 0
87 -3 -5 -32 0
88 -3 -6 -33 0
89 -3 -7 -34 0
95 -4 -6 -40 0
96 -4 -7 -41 0
101 -5 -6 -46 0
102 -5 -7 -47 0
107 -6 -7 -52 0
116 8 9 61 0
117 8 10 62 0
118 8 11 63 0
119 9 10 64 0
120 9 11 65 0
121 10 11 66 0
127 -12 -18 -27 0
128 -12 -19 -28 0
129 -12 -20 -29 0
135 -13 -18 -35 0
136 -13 -19 -36 0
137 -13 -20 -37 0
139 14 15 39 0
140 14 16 40 0
141 14 17 41 0
145 14 21 45 0
146 15 16 46 0
147 15 17 47 0
151 15 21 51 0
152 16 17 52 0
156 16 21 56 0
160 17 21 60 0
161 -18 -19 -61 0
162 -18 -20 -62 0
164 -19 -20 -64 0
169 22 25 33 0
170 22 26 34 0
171 22 27 35 0
172 22 28 36 0
173 22 29 37 0
174 22 30 38 0
178 -23 -27 -42 0
179 -23 -28 -43 0
180 -23 -29 -44 0
181 -23 -30 -45 0
184 -24 -27 -48 0
185 -24 -28 -49 0
186 -24 -29 -50 0
187 -24 -30 -51 0
188 25 26 52 0
189 25 27 53 0
190 25 28 54 0
191 25 29 55 0
192 25 30 56 0
193 26 27 57 0
194 26 28 58 0
195 26 29 59 0
196 26 30 60 0
197 27 28 61 0
198 27 29 62 0
199 -27 -30 -63 0
199 27 30 63 0
200 28 29 64 0
201 -28 -30 -65 0
201 28 30 65 0
202 -29 -30 -66 0
202 29 30 66 0
203 31 32 39 0
204 31 33 40 0
205 31 34 41 0
206 -31 -35 -42 0
206 31 35 42 0
207 -31 -36 -43 0
207 31 36 43 0
208 -31 -37 -44 0
208 31 37 44 0
209 -31 -38 -45 0
209 31 38 45 0
210 -32 -33 -46 0
210 32 33 46 0
211 32 34 47 0
212 -32 -35 -48 0
212 32 35 48 0
213 -32 -36 -49 0
213 32 36 49 0
214 -32 -37 -50 0
214 32 37 50 0
215 -32 -38 -51 0
215 32 38 51 0
217 -33 -35 -53 0
217 33 35 53 0
218 -33 -36 -54 0
218 33 36 54 0
219 -33 -37 -55 0
219 33 37 55 0
220 -33 -38 -56 0
220 33 38 56 0
221 -34 -35 -57 0
221 34 35 57 0
222 -34 -36 -58 0
222 34 36 58 0
223 -34 -37 -59 0
223 34 37 59 0
224 -34 -38 -60 0
224 34 38 60 0
225 35 36 61 0
226 35 37 62 0
227 -35 -38 -63 0
227 35 38 63 0
228 36 37 64 0
229 -36 -38 -65 0
229 36 38 65 0
230 -37 -38 -66 0
230 37 38 66 0
233 39 42 48 0
234 39 43 49 0
235 39 44 50 0
238 -40 -42 -53 0
238 40 42 53 0
239 -40 -43 -54 0
239 40 43 54 0
240 -40 -44 -55 0
240 40 44 55 0
241 -40 -45 -56 0
242 -41 -42 -57 0
242 41 42 57 0
243 -41 -43 -58 0
243 41 43 58 0
244 -41 -44 -59 0
244 41 44 59 0
245 -41 -45 -60 0
246 -42 -43 -61 0
246 42 43 61 0
247 -42 -44 -62 0
247 42 44 62 0
248 -42 -45 -63 0
248 42 45 63 0
249 -43 -44 -64 0
249 43 44 64 0
250 -43 -45 -65 0
250 43 45 65 0
251 -44 -45 -66 0
251 44 45 66 0
252 46 47 52 0
253 -46 -48 -53 0
253 46 48 53 0
254 -46 -49 -54 0
254 46 49 54 0
255 -46 -50 -55 0
255 46 50 55 0
256 -46 -51 -56 0
256 46 51 56 0
257 -47 -48 -57 0
257 47 48 57 0
258 -47 -49 -58 0
258 47 49 58 0
259 -47 -50 -59 0
259 47 50 59 0
260 -47 -51 -60 0
261 -48 -49 -61 0
261 48 49 61 0
262 -48 -50 -62 0
262 48 50 62 0
263 -48 -51 -63 0
263 48 51 63 0
264 -49 -50 -64 0
264 49 50 64 0
265 -49 -51 -65 0
265 49 51 65 0
266 -50 -51 -66 0
266 50 51 66 0
267 -52 -53 -57 0
267 52 53 57 0
268 -52 -54 -58 0
268 52 54 58 0
269 -52 -55 -59 0
269 52 55 59 0
270 -52 -56 -60 0
271 -53 -54 -61 0
271 53 54 61 0
272 -53 -55 -62 0
272 53 55 62 0
273 -53 -56 -63 0
273 53 56 63 0
274 -54 -55 -64 0
274 54 55 64 0
275 -54 -56 -65 0
275 54 56 65 0
276 -55 -56 -66 0
276 55 56 66 0
277 -57 -58 -61 0
277 57 58 61 0
278 -57 -59 -62 0
278 57 59 62 0
279 -57 -60 -63 0
279 57 60 63 0
280 -58 -59 -64 0
280 58 59 64 0
281 -58 -60 -65 0
281 58 60 65 0
282 -59 -60 -66 0
282 59 60 66 0
284 -61 -63 -65 0
285 -62 -63 -66 0
286 -64 -65 -66 0
-67 -203 -267 -286 0
-67 -203 -268 -285 0
-67 -203 -269 -284 0
-67 -203 -271 -282 0
-67 -203 -272 -281 0
-67 -203 -273 -280 0
-67 -203 -274 -279 0
-67 -203 -275 -278 0
-67 -203 -276 -277 0
-67 -204 -257 -286 0
-67 -204 -258 -285 0
-67 -204 -259 -284 0
-67 -204 -263 -280 0
-67 -205 -253 -286 0
-67 -205 -254 -285 0
-67 -205 -255 -284 0
-67 -206 -256 -280 0
-67 -206 -260 -274 0
-67 -206 -264 -270 0
-67 -207 -260 -272 0
-67 -207 -262 -270 0
-67 -208 -253 -281 0
-67 -208 -256 -277 0
-67 -208 -258 -273 0
-67 -208 -260 -271 0
-67 -208 -261 -270 0
-67 -208 -265 -267 0
-67 -209 -253 -280 0
-67 -209 -261 -269 0
-67 -210 -242 -286 0
-67 -210 -243 -285 0
-67 -210 -244 -284 0
-67 -211 -238 -286 0
-67 -211 -239 -285 0
-67 -211 -240 -284 0
-67 -211 -251 -271 0
-67 -212 -245 -274 0
-67 -212 -249 -270 0
-67 -213 -241 -278 0
-67 -213 -245 -272 0
-67 -213 -247 -270 0
-67 -214 -239 -279 0
-67 -214 -245 -271 0
-67 -214 -246 -270 0
-67 -215 -238 -280 0
-67 -215 -242 -274 0
-67 -217 -234 -282 0
-67 -217 -249 -260 0
-67 -218 -235 -279 0
-67 -218 -242 -266 0
-67 -218 -247 -260 0
-67 -218 -248 -259 0
-67 -218 -251 -257 0
-67 -219 -233 -281 0
-67 -219 -246 -260 0
-67 -219 -250 -257 0
-67 -220 -234 -278 0
-67 -220 -242 -264 0
-67 -221 -241 -264 0
-67 -222 -233 -276 0
-67 -222 -247 -256 0
-67 -222 -251 -253 0
-67 -223 -233 -275 0
-67 -223 -238 -265 0
-67 -224 -233 -274 0
-67 -224 -234 -272 0
-67 -224 -238 -264 0
-67 -224 -246 -255 0
-67 -224 -249 -253 0
-67 -225 -235 -270 0
-67 -225 -240 -260 0
-67 -225 -244 -256 0
-67 -225 -245 -255 0
-67 -226 -234 -270 0
-67 -226 -239 -260 0
-67 -226 -241 -258 0
-67 -226 -243 -256 0
-67 -226 -245 -254 0
-67 -227 -243 -255 0
-67 -228 -233 -270 0
-67 -228 -238 -260 0
-67 -228 -241 -257 0
-67 -228 -242 -256 0
-67 -228 -245 -253 0
-67 -229 -233 -269 0
-67 -229 -244 -253 0
-67 -230 -233 -268 0
-68 -178 -254 -282 0
-68 -178 -255 -281 0
-68 -178 -256 -280 0
-68 -178 -260 -274 0
-68 -178 -264 -270 0
-68 -178 -265 -269 0
-68 -179 -255 -279 0
-68 -179 -262 -270 0
-68 -179 -263 -269 0
-68 -180 -253 -281 0
-68 -180 -256 -277 0
-68 -180 -260 -271 0
-68 -180 -261 -270 0
-68 -180 -263 -268 0
-68 -180 -265 -267 0
-68 -181 -255 -277 0
-68 -181 -257 -274 0
-68 -181 -258 -272 0
-68 -181 -261 -269 0
-68 -181 -264 -267 0
-68 -184 -245 -274 0
-68 -184 -249 -270 0
-68 -185 -247 -270 0
-68 -186 -239 -279 0
-68 -186 -241 -277 0
-68 -186 -242 -275 0
-68 -186 -245 -271 0
-68 -186 -246 -270 0
-68 -187 -238 -280 0
-68 -187 -240 -277 0
-68 -187 -242 -274 0
-68 -187 -243 -272 0
-68 -187 -246 -269 0
-68 -187 -247 -268 0
-68 -187 -249 -267 0
-68 -188 -233 -286 0
-68 -188 -234 -285 0
-68 -188 -235 -284 0
-68 -188 -246 -266 0
-68 -188 -247 -265 0
-68 -188 -248 -264 0
-68 -188 -249 -263 0
-68 -188 -250 -262 0
-68 -188 -251 -261 0
-68 -189 -235 -281 0
-68 -189 -245 -264 0
-68 -189 -249 -260 0
-68 -190 -235 -279 0
-68 -190 -242 -266 0
-68 -190 -245 -262 0
-68 -190 -247 -260 0
-68 -191 -233 -281 0
-68 -191 -243 -263 0
-68 -191 -245 -261 0
-68 -191 -246 -260 0
-68 -192 -233 -280 0
-68 -192 -247 -258 0
-68 -193 -235 -275 0
-68 -193 -240 -265 0
-68 -193 -241 -264 0
-68 -193 -249 -256 0
-68 -193 -250 -255 0
-68 -194 -247 -256 0
-68 -194 -251 -253 0
-68 -195 -233 -275 0
-68 -195 -234 -273 0
-68 -195 -241 -261 0
-68 -195 -246 -256 0
-68 -196 -234 -272 0
-68 -196 -247 -254 0
-68 -197 -235 -270 0
-68 -197 -240 -260 0
-68 -197 -241 -259 0
-68 -198 -234 -270 0
-68 -198 -239 -260 0
-68 -198 -241 -258 0
-68 -198 -243 -256 0
-68 -198 -245 -254 0
-68 -199 -239 -259 0
-68 -200 -233 -270 0
-68 -200 -238 -260 0
-68 -200 -241 -257 0
-68 -200 -242 -256 0
-68 -200 -245 -253 0
-68 -201 -233 -269 0
-68 -201 -235 -267 0
-68 -201 -238 -259 0
-68 -201 -240 -257 0
-68 -201 -244 -253 0
-68 -202 -234 -267 0
-68 -202 -243 -253 0
-78 -135 -254 -282 0
-78 -135 -255 -281 0
-78 -135 -256 -280 0
-78 -135 -259 -275 0
-78 -135 -260 -274 0
-78 -135 -264 -270 0
-78 -135 -265 -269 0
-78 -135 -266 -268 0
-78 -136 -252 -285 0
-78 -136 -253 -282 0
-78 -136 -255 -279 0
-78 -136 -256 -278 0
-78 -136 -257 -276 0
-78 -136 -259 -273 0
-78 -136 -260 -272 0
-78 -136 -262 -270 0
-78 -136 -266 -267 0
-78 -137 -252 -284 0
-78 -137 -253 -281 0
-78 -137 -254 -279 0
-78 -137 -256 -277 0
-78 -137 -257 -275 0
-78 -137 -258 -273 0
-78 -137 -260 -271 0
-78 -137 -261 -270 0
-78 -137 -263 -268 0
-78 -137 -265 -267 0
-78 -146 -221 -286 0
-78 -146 -222 -285 0
-78 -146 -223 -284 0
-78 -146 -226 -281 0
-78 -146 -227 -280 0
-78 -146 -228 -279 0
-78 -146 -229 -278 0
-78 -146 -230 -277 0
-78 -147 -217 -286 0
-78 -147 -218 -285 0
-78 -147 -219 -284 0
-78 -147 -225 -276 0
-78 -147 -227 -274 0
-78 -147 -228 -273 0
-78 -147 -229 -272 0
-78 -147 -230 -271 0
-78 -151 -217 -280 0
-78 -151 -218 -278 0
-78 -151 -221 -274 0
-78 -151 -222 -272 0
-78 -151 -226 -268 0
-78 -151 -228 -267 0
-78 -152 -212 -286 0
-78 -152 -213 -285 0
-78 -152 -214 -284 0
-78 -152 -226 -265 0
-78 -152 -227 -264 0
-78 -152 -228 -263 0
-78 -152 -229 -262 0
-78 -152 -230 -261 0
-78 -156 -212 -280 0
-78 -156 -213 -278 0
-78 -156 -221 -264 0
-78 -156 -222 -262 0
-78 -156 -223 -261 0
-78 -156 -226 -258 0
-78 -156 -228 -257 0
-78 -160 -212 -274 0
-78 -160 -213 -272 0
-78 -160 -214 -271 0
-78 -160 -218 -262 0
-78 -160 -219 -261 0
-78 -160 -225 -255 0
-78 -160 -226 -254 0
-78 -160 -228 -253 0
-78 -161 -210 -282 0
-78 -161 -211 -276 0
-78 -161 -214 -270 0
-78 -161 -215 -269 0
-78 -161 -219 -260 0
-78 -161 -220 -259 0
-78 -161 -223 -256 0
-78 -161 -224 -255 0
-78 -162 -210 -281 0
-78 -162 -211 -275 0
-78 -162 -213 -270 0
-78 -162 -215 -268 0
-78 -162 -218 -260 0
-78 -162 -220 -258 0
-78 -162 -222 -256 0
-78 -162 -224 -254 0
-78 -164 -210 -279 0
-78 -164 -211 -273 0
-78 -164 -212 -270 0
-78 -164 -215 -267 0
-78 -164 -217 -260 0
-78 -164 -220 -257 0
-78 -164 -221 -256 0
-78 -164 -224 -253 0
-79 -135 -239 -282 0
-79 -135 -240 -281 0
-79 -135 -241 -280 0
-79 -135 -243 -276 0
-79 -135 -244 -275 0
-79 -135 -245 -274 0
-79 -135 -249 -270 0
-79 -135 -250 -269 0
-79 -135 -251 -268 0
-79 -136 -238 -282 0
-79 -136 -240 -279 0
-79 -136 -241 -278 0
-79 -136 -242 -276 0
-79 -136 -244 -273 0
-79 -136 -245 -272 0
-79 -136 -247 -270 0
-79 -136 -248 -269 0
-79 -136 -251 -267 0
-79 -137 -238 -281 0
-79 -137 -239 -279 0
-79 -137 -241 -277 0
-79 -137 -242 -275 0
-79 -137 -243 -273 0
-79 -137 -245 -271 0
-79 -137 -246 -270 0
-79 -137 -248 -268 0
-79 -137 -250 -267 0
-79 -140 -221 -286 0
-79 -140 -222 -285 0
-79 -140 -223 -284 0
-79 -140 -226 -281 0
-79 -140 -227 -280 0
-79 -140 -228 -279 0
-79 -140 -229 -278 0
-79 -140 -230 -277 0
-79 -141 -217 -286 0
-79 -141 -218 -285 0
-79 -141 -219 -284 0
-79 -141 -225 -276 0
-79 -141 -226 -275 0
-79 -141 -227 -274 0
-79 -141 -228 -273 0
-79 -141 -229 -272 0
-79 -141 -230 -271 0
-79 -145 -217 -280 0
-79 -145 -218 -278 0
-79 -145 -219 -277 0
-79 -145 -221 -274 0
-79 -145 -222 -272 0
-79 -145 -223 -271 0
-79 -145 -228 -267 0
-79 -152 -206 -286 0
-79 -152 -207 -285 0
-79 -152 -208 -284 0
-79 -152 -225 -251 0
-79 -152 -226 -250 0
-79 -152 -227 -249 0
-79 -152 -228 -248 0
-79 -152 -229 -247 0
-79 -152 -230 -246 0
-79 -156 -206 -280 0
-79 -156 -207 -278 0
-79 -156 -208 -277 0
-79 -156 -221 -249 0
-79 -156 -222 -247 0
-79 -156 -223 -246 0
-79 -156 -225 -244 0
-79 -156 -226 -243 0
-79 -156 -228 -242 0
-79 -160 -207 -272 0
-79 -160 -208 -271 0
-79 -160 -217 -249 0
-79 -160 -218 -247 0
-79 -160 -219 -246 0
-79 -160 -225 -240 0
-79 -160 -226 -239 0
-79 -160 -228 -238 0
-79 -161 -204 -282 0
-79 -161 -205 -276 0
-79 -161 -208 -270 0
-79 -161 -209 -269 0
-79 -161 -219 -245 0
-79 -161 -220 -244 0
-79 -161 -223 -241 0
-79 -161 -224 -240 0
-79 -162 -204 -281 0
-79 -162 -205 -275 0
-79 -162 -207 -270 0
-79 -162 -209 -268 0
-79 -162 -218 -245 0
-79 -162 -220 -243 0
-79 -162 -222 -241 0
-79 -162 -224 -239 0
-79 -164 -204 -279 0
-79 -164 -205 -273 0
-79 -164 -206 -270 0
-79 -164 -209 -267 0
-79 -164 -217 -245 0
-79 -164 -220 -242 0
-79 -164 -221 -241 0
-79 -164 -224 -238 0
-86 -127 -254 -282 0
-86 -127 -255 -281 0
-86 -127 -256 -280 0
-86 -127 -258 -276 0
-86 -127 -259 -275 0
-86 -127 -260 -274 0
-86 -127 -264 -270 0
-86 -128 -253 -282 0
-86 -128 -256 -278 0
-86 -128 -257 -276 0
-86 -128 -260 -272 0
-86 -128 -262 -270 0
-86 -128 -263 -269 0
-86 -129 -253 -281 0
-86 -129 -256 -277 0
-86 -129 -257 -275 0
-86 -129 -260 -271 0
-86 -129 -261 -270 0
-86 -146 -193 -286 0
-86 -146 -194 -285 0
-86 -146 -199 -280 0
-86 -146 -201 -278 0
-86 -146 -202 -277 0
-86 -147 -189 -286 0
-86 -147 -190 -285 0
-86 -147 -191 -284 0
-86 -147 -199 -274 0
-86 -147 -201 -272 0
-86 -147 -202 -271 0
-86 -151 -189 -280 0
-86 -151 -193 -274 0
-86 -151 -198 -268 0
-86 -151 -200 -267 0
-86 -152 -184 -286 0
-86 -152 -185 -285 0
-86 -152 -186 -284 0
-86 -152 -197 -266 0
-86 -152 -199 -264 0
-86 -152 -200 -263 0
-86 -152 -201 -262 0
-86 -152 -202 -261 0
-86 -156 -186 -277 0
-86 -156 -193 -264 0
-86 -156 -195 -261 0
-86 -160 -185 -272 0
-86 -160 -189 -264 0
-86 -160 -191 -261 0
-86 -161 -186 -270 0
-86 -161 -187 -269 0
-86 -161 -188 -266 0
-86 -161 -191 -260 0
-86 -161 -195 -256 0
-86 -161 -196 -255 0
-86 -162 -185 -270 0
-86 -162 -187 -268 0
-86 -162 -188 -265 0
-86 -162 -190 -260 0
-86 -162 -192 -258 0
-86 -162 -194 -256 0
-86 -162 -196 -254 0
-86 -164 -184 -270 0
-86 -164 -187 -267 0
-86 -164 -188 -263 0
-86 -164 -189 -260 0
-86 -164 -192 -257 0
-86 -164 -193 -256 0
-86 -164 -196 -253 0
-87 -127 -239 -282 0
-87 -127 -240 -281 0
-87 -127 -241 -280 0
-87 -127 -243 -276 0
-87 -127 -245 -274 0
-87 -127 -249 -270 0
-87 -127 -250 -269 0
-87 -128 -241 -278 0
-87 -128 -242 -276 0
-87 -128 -245 -272 0
-87 -128 -247 -270 0
-87 -128 -248 -269 0
-87 -129 -238 -281 0
-87 -129 -241 -277 0
-87 -129 -242 -275 0
-87 -129 -245 -271 0
-87 -129 -246 -270 0
-87 -140 -193 -286 0
-87 -140 -194 -285 0
-87 -140 -195 -284 0
-87 -140 -199 -280 0
-87 -140 -200 -279 0
-87 -140 -201 -278 0
-87 -141 -189 -286 0
-87 -141 -190 -285 0
-87 -141 -191 -284 0
-87 -141 -199 -274 0
-87 -141 -201 -272 0
-87 -145 -197 -269 0
-87 -145 -200 -267 0
-87 -152 -178 -286 0
-87 -152 -179 -285 0
-87 -152 -180 -284 0
-87 -152 -197 -251 0
-87 -152 -199 -249 0
-87 -152 -200 -248 0
-87 -152 -201 -247 0
-87 -152 -202 -246 0
-87 -156 -179 -278 0
-87 -156 -180 -277 0
-87 -156 -193 -249 0
-87 -160 -178 -274 0
-87 -160 -189 -249 0
-87 -160 -200 -238 0
-87 -161 -180 -270 0
-87 -161 -181 -269 0
-87 -161 -188 -251 0
-87 -161 -191 -245 0
-87 -161 -195 -241 0
-87 -161 -196 -240 0
-87 -162 -179 -270 0
-87 -162 -181 -268 0
-87 -162 -188 -250 0
-87 -162 -190 -245 0
-87 -162 -192 -243 0
-87 -162 -194 -241 0
-87 -162 -196 -239 0
-87 -164 -178 -270 0
-87 -164 -181 -267 0
-87 -164 -188 -248 0
-87 -164 -189 -245 0
-87 -164 -192 -242 0
-87 -164 -193 -241 0
-87 -164 -196 -238 0
-88 -127 -234 -282 0
-88 -127 -235 -281 0
-88 -127 -243 -266 0
-88 -127 -245 -264 0
-88 -127 -249 -260 0
-88 -127 -250 -259 0
-88 -127 -251 -258 0
-88 -128 -233 -282 0
-88 -128 -242 -266 0
-88 -128 -244 -263 0
-88 -128 -245 -262 0
-88 -128 -247 -260 0
-88 -128 -248 -259 0
-88 -128 -251 -257 0
-88 -129 -233 -281 0
-88 -129 -234 -279 0
-88 -129 -242 -265 0
-88 -129 -243 -263 0
-88 -129 -245 -261 0
-88 -129 -246 -260 0
-88 -129 -250 -257 0
-88 -139 -193 -286 0
-88 -139 -194 -285 0
-88 -139 -195 -284 0
-88 -139 -197 -282 0
-88 -139 -198 -281 0
-88 -139 -199 -280 0
-88 -139 -200 -279 0
-88 -139 -201 -278 0
-88 -139 -202 -277 0
-88 -141 -184 -286 0
-88 -141 -185 -285 0
-88 -141 -186 -284 0
-88 -141 -197 -266 0
-88 -141 -198 -265 0
-88 -141 -200 -263 0
-88 -141 -202 -261 0
-88 -145 -184 -280 0
-88 -145 -185 -278 0
-88 -145 -194 -262 0
-88 -145 -195 -261 0
-88 -145 -197 -259 0
-88 -145 -200 -257 0
-88 -147 -178 -286 0
-88 -147 -179 -285 0
-88 -147 -180 -284 0
-88 -147 -198 -250 0
-88 -147 -200 -248 0
-88 -147 -201 -247 0
-88 -151 -179 -278 0
-88 -151 -180 -277 0
-88 -151 -193 -249 0
-88 -151 -195 -246 0
-88 -151 -197 -244 0
-88 -151 -198 -243 0
-88 -151 -200 -242 0
-88 -160 -184 -249 0
-88 -160 -186 -246 0
-88 -160 -197 -235 0
-88 -161 -180 -260 0
-88 -161 -181 -259 0
-88 -161 -186 -245 0
-88 -161 -187 -244 0
-88 -161 -196 -235 0
-88 -162 -179 -260 0
-88 -162 -181 -258 0
-88 -162 -185 -245 0
-88 -162 -187 -243 0
-88 -162 -196 -234 0
-88 -164 -178 -260 0
-88 -164 -181 -257 0
-88 -164 -184 -245 0
-88 -164 -187 -242 0
-88 -164 -196 -233 0
-89 -127 -234 -276 0
-89 -127 -235 -275 0
-89 -127 -239 -266 0
-89 -127 -240 -265 0
-89 -127 -241 -264 0
-89 -127 -249 -256 0
-89 -127 -250 -255 0
-89 -127 -251 -254 0
-89 -128 -233 -276 0
-89 -128 -235 -273 0
-89 -128 -238 -266 0
-89 -128 -240 -263 0
-89 -128 -241 -262 0
-89 -128 -247 -256 0
-89 -128 -248 -255 0
-89 -128 -251 -253 0
-89 -129 -233 -275 0
-89 -129 -238 -265 0
-89 -129 -241 -261 0
-89 -129 -246 -256 0
-89 -129 -248 -254 0
-89 -129 -250 -253 0
-89 -139 -189 -286 0
-89 -139 -190 -285 0
-89 -139 -191 -284 0
-89 -139 -197 -276 0
-89 -139 -198 -275 0
-89 -139 -199 -274 0
-89 -139 -200 -273 0
-89 -139 -201 -272 0
-89 -139 -202 -271 0
-89 -140 -184 -286 0
-89 -140 -185 -285 0
-89 -140 -186 -284 0
-89 -140 -197 -266 0
-89 -140 -198 -265 0
-89 -140 -199 -264 0
-89 -140 -200 -263 0
-89 -140 -201 -262 0
-89 -145 -184 -274 0
-89 -145 -190 -262 0
-89 -145 -191 -261 0
-89 -145 -197 -255 0
-89 -145 -200 -253 0
-89 -146 -178 -286 0
-89 -146 -179 -285 0
-89 -146 -180 -284 0
-89 -146 -198 -250 0
-89 -146 -199 -249 0
-89 -146 -200 -248 0
-89 -151 -178 -274 0
-89 -151 -179 -272 0
-89 -151 -191 -246 0
-89 -151 -197 -240 0
-89 -151 -198 -239 0
-89 -151 -200 -238 0
-89 -156 -179 -262 0
-89 -156 -184 -249 0
-89 -156 -185 -247 0
-89 -156 -186 -246 0
-89 -156 -197 -235 0
-89 -156 -200 -233 0
-89 -161 -180 -256 0
-89 -161 -181 -255 0
-89 -161 -186 -241 0
-89 -161 -187 -240 0
-89 -161 -192 -235 0
-89 -162 -179 -256 0
-89 -162 -181 -254 0
-89 -162 -185 -241 0
-89 -162 -187 -239 0
-89 -162 -192 -234 0
-89 -164 -178 -256 0
-89 -164 -181 -253 0
-89 -164 -184 -241 0
-89 -164 -187 -238 0
-89 -164 -192 -233 0
-95 -127 -211 -286 0
-95 -127 -215 -280 0
-95 -127 -222 -266 0
-95 -127 -223 -265 0
-95 -127 -224 -264 0
-95 -127 -228 -260 0
-95 -127 -229 -259 0
-95 -127 -230 -258 0
-95 -128 -211 -285 0
-95 -128 -215 -278 0
-95 -128 -221 -266 0
-95 -128 -223 -263 0
-95 -128 -224 -262 0
-95 -128 -226 -260 0
-95 -128 -227 -259 0
-95 -128 -230 -257 0
-95 -129 -212 -281 0
-95 -129 -221 -265 0
-95 -129 -222 -263 0
-95 -129 -224 -261 0
-95 -129 -227 -258 0
-95 -129 -229 -257 0
-95 -135 -185 -282 0
-95 -135 -186 -281 0
-95 -135 -187 -280 0
-95 -135 -195 -265 0
-95 -135 -196 -264 0
-95 -135 -200 -260 0
-95 -135 -201 -259 0
-95 -135 -202 -258 0
-95 -136 -184 -282 0
-95 -136 -186 -279 0
-95 -136 -187 -278 0
-95 -136 -193 -266 0
-95 -136 -195 -263 0
-95 -136 -196 -262 0
-95 -136 -199 -259 0
-95 -136 -202 -257 0
-95 -137 -184 -281 0
-95 -137 -185 -279 0
-95 -137 -187 -277 0
-95 -137 -196 -261 0
-95 -137 -197 -260 0
-95 -137 -199 -258 0
-95 -137 -201 -257 0
-95 -147 -171 -286 0
-95 -147 -172 -285 0
-95 -147 -197 -230 0
-95 -147 -201 -226 0
-95 -151 -171 -280 0
-95 -151 -172 -278 0
-95 -151 -193 -228 0
-95 -151 -194 -226 0
-95 -151 -195 -225 0
-95 -151 -197 -223 0
-95 -151 -200 -221 0
-95 -160 -171 -264 0
-95 -160 -172 -262 0
-95 -160 -173 -261 0
-95 -160 -184 -228 0
-95 -160 -197 -214 0
-95 -160 -200 -212 0
-95 -161 -170 -266 0
-95 -161 -173 -260 0
-95 -161 -174 -259 0
-95 -161 -186 -224 0
-95 -161 -187 -223 0
-95 -161 -195 -215 0
-95 -162 -170 -265 0
-95 -162 -172 -260 0
-95 -162 -174 -258 0
-95 -162 -185 -224 0
-95 -162 -187 -222 0
-95 -162 -194 -215 0
-95 -162 -196 -213 0
-95 -162 -201 -211 0
-95 -164 -170 -263 0
-95 -164 -171 -260 0
-95 -164 -174 -257 0
-95 -164 -184 -224 0
-95 -164 -187 -221 0
-95 -164 -193 -215 0
-95 -164 -196 -212 0
-95 -164 -199 -211 0
-96 -127 -215 -274 0
-96 -127 -218 -266 0
-96 -127 -220 -264 0
-96 -127 -228 -256 0
-96 -127 -229 -255 0
-96 -127 -230 -254 0
-96 -128 -215 -272 0
-96 -128 -217 -266 0
-96 -128 -219 -263 0
-96 -128 -220 -262 0
-96 -128 -226 -256 0
-96 -128 -227 -255 0
-96 -128 -230 -253 0
-96 -129 -210 -284 0
-96 -129 -213 -273 0
-96 -129 -215 -271 0
-96 -129 -217 -265 0
-96 -129 -218 -263 0
-96 -129 -220 -261 0
-96 -129 -227 -254 0
-96 -129 -229 -253 0
-96 -135 -186 -275 0
-96 -135 -187 -274 0
-96 -135 -190 -266 0
-96 -135 -191 -265 0
-96 -135 -192 -264 0
-96 -135 -200 -256 0
-96 -135 -201 -255 0
-96 -135 -202 -254 0
-96 -136 -184 -276 0
-96 -136 -186 -273 0
-96 -136 -187 -272 0
-96 -136 -189 -266 0
-96 -136 -192 -262 0
-96 -136 -198 -256 0
-96 -136 -199 -255 0
-96 -136 -202 -253 0
-96 -137 -184 -275 0
-96 -137 -185 -273 0
-96 -137 -187 -271 0
-96 -137 -189 -265 0
-96 -137 -190 -263 0
-96 -137 -192 -261 0
-96 -137 -197 -256 0
-96 -137 -199 -254 0
-96 -137 -201 -253 0
-96 -146 -171 -286 0
-96 -146 -172 -285 0
-96 -146 -173 -284 0
-96 -146 -201 -226 0
-96 -151 -171 -274 0
-96 -151 -172 -272 0
-96 -151 -173 -271 0
-96 -151 -189 -228 0
-96 -151 -191 -225 0
-96 -151 -197 -219 0
-96 -151 -198 -218 0
-96 -151 -200 -217 0
-96 -156 -171 -264 0
-96 -156 -172 -262 0
-96 -156 -173 -261 0
-96 -156 -184 -228 0
-96 -156 -197 -214 0
-96 -156 -198 -213 0
-96 -156 -200 -212 0
-96 -161 -169 -266 0
-96 -161 -173 -256 0
-96 -161 -174 -255 0
-96 -161 -186 -220 0
-96 -161 -187 -219 0
-96 -161 -191 -215 0
-96 -161 -202 -210 0
-96 -162 -169 -265 0
-96 -162 -172 -256 0
-96 -162 -174 -254 0
-96 -162 -185 -220 0
-96 -162 -187 -218 0
-96 -162 -190 -215 0
-96 -162 -192 -213 0
-96 -162 -201 -210 0
-96 -164 -169 -263 0
-96 -164 -171 -256 0
-96 -164 -174 -253 0
-96 -164 -184 -220 0
-96 -164 -187 -217 0
-96 -164 -189 -215 0
-96 -164 -192 -212 0
-96 -164 -199 -210 0
-101 -127 -205 -286 0
-101 -127 -207 -282 0
-101 -127 -209 -280 0
-101 -127 -222 -251 0
-101 -127 -223 -250 0
-101 -127 -224 -249 0
-101 -127 -228 -245 0
-101 -127 -229 -244 0
-101 -127 -230 -243 0
-101 -128 -206 -282 0
-101 -128 -209 -278 0
-101 -128 -221 -251 0
-101 -128 -223 -248 0
-101 -128 -224 -247 0
-101 -128 -226 -245 0
-101 -128 -227 -244 0
-101 -129 -205 -284 0
-101 -129 -206 -281 0
-101 -129 -207 -279 0
-101 -129 -209 -277 0
-101 -129 -221 -250 0
-101 -129 -222 -248 0
-101 -129 -224 -246 0
-101 -129 -225 -245 0
-101 -129 -227 -243 0
-101 -129 -229 -242 0
-101 -135 -179 -282 0
-101 -135 -180 -281 0
-101 -135 -181 -280 0
-101 -135 -194 -251 0
-101 -135 -195 -250 0
-101 -135 -196 -249 0
-101 -135 -200 -245 0
-101 -135 -201 -244 0
-101 -135 -202 -243 0
-101 -136 -178 -282 0
-101 -136 -180 -279 0
-101 -136 -181 -278 0
-101 -136 -193 -251 0
-101 -136 -195 -248 0
-101 -136 -196 -247 0
-101 -136 -199 -244 0
-101 -136 -202 -242 0
-101 -137 -178 -281 0
-101 -137 -179 -279 0
-101 -137 -181 -277 0
-101 -137 -196 -246 0
-101 -137 -199 -243 0
-101 -137 -201 -242 0
-101 -141 -171 -286 0
-101 -141 -172 -285 0
-101 -141 -173 -284 0
-101 -145 -171 -280 0
-101 -145 -172 -278 0
-101 -145 -173 -277 0
-101 -145 -193 -228 0
-101 -145 -194 -226 0
-101 -145 -195 -225 0
-101 -145 -197 -223 0
-101 -145 -198 -222 0
-101 -145 -200 -221 0
-101 -160 -171 -249 0
-101 -160 -172 -247 0
-101 -160 -173 -246 0
-101 -160 -197 -208 0
-101 -160 -198 -207 0
-101 -160 -200 -206 0
-101 -161 -170 -251 0
-101 -161 -173 -245 0
-101 -161 -174 -244 0
-101 -161 -180 -224 0
-101 -161 -181 -223 0
-101 -161 -195 -209 0
-101 -161 -196 -208 0
-101 -161 -202 -205 0
-101 -162 -170 -250 0
-101 -162 -172 -245 0
-101 -162 -174 -243 0
-101 -162 -179 -224 0
-101 -162 -181 -222 0
-101 -162 -194 -209 0
-101 -162 -196 -207 0
-101 -162 -201 -205 0
-101 -164 -170 -248 0
-101 -164 -171 -245 0
-101 -164 -174 -242 0
-101 -164 -178 -224 0
-101 -164 -181 -221 0
-101 -164 -193 -209 0
-101 -164 -196 -206 0
-101 -164 -199 -205 0
-102 -127 -207 -276 0
-102 -127 -209 -274 0
-102 -127 -218 -251 0
-102 -127 -219 -250 0
-102 -127 -220 -249 0
-102 -127 -228 -241 0
-102 -127 -229 -240 0
-102 -127 -230 -239 0
-102 -128 -204 -285 0
-102 -128 -206 -276 0
-102 -128 -208 -273 0
-102 -128 -209 -272 0
-102 -128 -217 -251 0
-102 -128 -219 -248 0
-102 -128 -220 -247 0
-102 -128 -226 -241 0
-102 -128 -227 -240 0
-102 -129 -204 -284 0
-102 -129 -206 -275 0
-102 -129 -207 -273 0
-102 -129 -209 -271 0
-102 -129 -217 -250 0
-102 -129 -220 -246 0
-102 -129 -227 -239 0
-102 -129 -229 -238 0
-102 -135 -179 -276 0
-102 -135 -180 -275 0
-102 -135 -181 -274 0
-102 -135 -191 -250 0
-102 -135 -192 -249 0
-102 -135 -200 -241 0
-102 -135 -201 -240 0
-102 -135 -202 -239 0
-102 -136 -180 -273 0
-102 -136 -181 -272 0
-102 -136 -189 -251 0
-102 -136 -191 -248 0
-102 -136 -192 -247 0
-102 -136 -198 -241 0
-102 -136 -199 -240 0
-102 -136 -202 -238 0
-102 -137 -178 -275 0
-102 -137 -179 -273 0
-102 -137 -181 -271 0
-102 -137 -189 -250 0
-102 -137 -190 -248 0
-102 -137 -197 -241 0
-102 -137 -199 -239 0
-102 -137 -201 -238 0
-102 -140 -171 -286 0
-102 -140 -172 -285 0
-102 -140 -173 -284 0
-102 -145 -171 -274 0
-102 -145 -172 -272 0
-102 -145 -173 -271 0
-102 -145 -189 -228 0
-102 -145 -197 -219 0
-102 -145 -198 -218 0
-102 -145 -200 -217 0
-102 -156 -171 -249 0
-102 -156 -172 -247 0
-102 -156 -173 -246 0
-102 -156 -178 -228 0
-102 -156 -180 -225 0
-102 -156 -197 -208 0
-102 -156 -200 -206 0
-102 -161 -169 -251 0
-102 -161 -173 -241 0
-102 -161 -174 -240 0
-102 -161 -180 -220 0
-102 -161 -181 -219 0
-102 -161 -191 -209 0
-102 -161 -192 -208 0
-102 -161 -202 -204 0
-102 -162 -169 -250 0
-102 -162 -172 -241 0
-102 -162 -174 -239 0
-102 -162 -179 -220 0
-102 -162 -181 -218 0
-102 -162 -190 -209 0
-102 -162 -192 -207 0
-102 -162 -201 -204 0
-102 -164 -169 -248 0
-102 -164 -171 -241 0
-102 -164 -174 -238 0
-102 -164 -178 -220 0
-102 -164 -181 -217 0
-102 -164 -189 -209 0
-102 -164 -192 -206 0
-102 -164 -199 -204 0
-107 -127 -203 -286 0
-107 -127 -207 -266 0
-107 -127 -209 -264 0
-107 -127 -213 -251 0
-107 -127 -214 -250 0
-107 -127 -215 -249 0
-107 -127 -230 -234 0
-107 -128 -203 -285 0
-107 -128 -206 -266 0
-107 -128 -208 -263 0
-107 -128 -209 -262 0
-107 -128 -212 -251 0
-107 -128 -214 -248 0
-107 -128 -215 -247 0
-107 -128 -227 -235 0
-107 -128 -230 -233 0
-107 -129 -203 -284 0
-107 -129 -206 -265 0
-107 -129 -207 -263 0
-107 -129 -209 -261 0
-107 -129 -212 -250 0
-107 -129 -213 -248 0
-107 -129 -215 -246 0
-107 -129 -229 -233 0
-107 -135 -179 -266 0
-107 -135 -180 -265 0
-107 -135 -181 -264 0
-107 -135 -185 -251 0
-107 -135 -186 -250 0
-107 -135 -187 -249 0
-107 -135 -201 -235 0
-107 -135 -202 -234 0
-107 -136 -178 -266 0
-107 -136 -180 -263 0
-107 -136 -181 -262 0
-107 -136 -187 -247 0
-107 -136 -199 -235 0
-107 -136 -202 -233 0
-107 -137 -178 -265 0
-107 -137 -181 -261 0
-107 -137 -184 -250 0
-107 -137 -187 -246 0
-107 -137 -199 -234 0
-107 -137 -201 -233 0
-107 -139 -171 -286 0
-107 -139 -172 -285 0
-107 -139 -173 -284 0
-107 -139 -197 -230 0
-107 -139 -198 -229 0
-107 -139 -199 -228 0
-107 -139 -200 -227 0
-107 -139 -201 -226 0
-107 -139 -202 -225 0
-107 -145 -171 -264 0
-107 -145 -173 -261 0
-107 -145 -197 -214 0
-107 -145 -198 -213 0
-107 -145 -200 -212 0
-107 -151 -171 -249 0
-107 -151 -172 -247 0
-107 -151 -173 -246 0
-107 -151 -197 -208 0
-107 -151 -198 -207 0
-107 -151 -200 -206 0
-107 -161 -174 -235 0
-107 -161 -180 -215 0
-107 -161 -181 -214 0
-107 -161 -186 -209 0
-107 -161 -187 -208 0
-107 -161 -202 -203 0
-107 -162 -174 -234 0
-107 -162 -179 -215 0
-107 -162 -181 -213 0
-107 -162 -185 -209 0
-107 -162 -187 -207 0
-107 -162 -201 -203 0
-107 -164 -174 -233 0
-107 -164 -178 -215 0
-107 -164 -181 -212 0
-107 -164 -184 -209 0
-107 -164 -187 -206 0
-107 -164 -199 -203 0
-116 -129 -203 -270 0
-116 -129 -204 -260 0
-116 -139 -169 -282 0
-116 -139 -170 -276 0
-116 -139 -173 -270 0
-116 -139 -174 -269 0
-116 -139 -188 -230 0
-116 -139 -191 -224 0
-116 -139 -192 -223 0
-116 -139 -195 -220 0
-116 -139 -196 -219 0
-116 -140 -170 -266 0
-116 -140 -173 -260 0
-116 -140 -174 -259 0
-116 -140 -187 -223 0
-116 -140 -195 -215 0
-116 -140 -196 -214 0
-116 -140 -202 -211 0
-116 -141 -169 -266 0
-116 -141 -173 -256 0
-116 -141 -187 -219 0
-116 -141 -191 -215 0
-116 -141 -192 -214 0
-116 -141 -202 -210 0
-116 -145 -169 -259 0
-116 -145 -170 -255 0
-116 -145 -188 -214 0
-116 -145 -191 -211 0
-116 -145 -195 -210 0
-116 -146 -170 -251 0
-116 -146 -173 -245 0
-116 -146 -181 -223 0
-116 -146 -195 -209 0
-116 -146 -196 -208 0
-116 -146 -202 -205 0
-116 -147 -169 -251 0
-116 -147 -173 -241 0
-116 -147 -180 -220 0
-116 -147 -181 -219 0
-116 -147 -191 -209 0
-116 -147 -192 -208 0
-116 -147 -202 -204 0
-116 -151 -169 -244 0
-116 -151 -170 -240 0
-116 -151 -188 -208 0
-116 -151 -191 -205 0
-116 -151 -195 -204 0
-116 -152 -174 -235 0
-116 -152 -180 -215 0
-116 -152 -181 -214 0
-116 -152 -186 -209 0
-116 -152 -187 -208 0
-116 -152 -202 -203 0
-116 -156 -170 -235 0
-116 -156 -180 -211 0
-116 -156 -186 -205 0
-116 -156 -195 -203 0
-116 -160 -169 -235 0
-116 -160 -180 -210 0
-116 -160 -186 -204 0
-116 -160 -191 -203 0
-117 -128 -203 -270 0
-117 -139 -169 -281 0
-117 -139 -170 -275 0
-117 -139 -172 -270 0
-117 -139 -174 -268 0
-117 -139 -188 -229 0
-117 -139 -190 -224 0
-117 -139 -192 -222 0
-117 -139 -194 -220 0
-117 -139 -196 -218 0
-117 -140 -170 -265 0
-117 -140 -172 -260 0
-117 -140 -187 -222 0
-117 -140 -194 -215 0
-117 -140 -196 -213 0
-117 -140 -201 -211 0
-117 -141 -169 -265 0
-117 -141 -172 -256 0
-117 -141 -185 -220 0
-117 -141 -187 -218 0
-117 -141 -190 -215 0
-117 -141 -192 -213 0
-117 -141 -201 -210 0
-117 -145 -169 -258 0
-117 -145 -170 -254 0
-117 -145 -188 -213 0
-117 -145 -190 -211 0
-117 -145 -194 -210 0
-117 -146 -170 -250 0
-117 -146 -172 -245 0
-117 -146 -174 -243 0
-117 -146 -181 -222 0
-117 -146 -194 -209 0
-117 -146 -196 -207 0
-117 -146 -201 -205 0
-117 -147 -169 -250 0
-117 -147 -172 -241 0
-117 -147 -174 -239 0
-117 -147 -179 -220 0
-117 -147 -181 -218 0
-117 -147 -190 -209 0
-117 -147 -192 -207 0
-117 -147 -201 -204 0
-117 -151 -169 -243 0
-117 -151 -170 -239 0
-117 -151 -188 -207 0
-117 -151 -190 -205 0
-117 -151 -194 -204 0
-117 -152 -174 -234 0
-117 -152 -179 -215 0
-117 -152 -181 -213 0
-117 -152 -185 -209 0
-117 -152 -187 -207 0
-117 -152 -201 -203 0
-117 -156 -170 -234 0
-117 -156 -179 -211 0
-117 -156 -185 -205 0
-117 -156 -194 -203 0
-117 -160 -169 -234 0
-117 -160 -179 -210 0
-117 -160 -185 -204 0
-117 -160 -190 -203 0
-118 -128 -203 -269 0
-118 -128 -204 -259 0
-118 -128 -205 -255 0
-118 -128 -211 -240 0
-118 -129 -203 -268 0
-118 -129 -204 -258 0
-118 -129 -205 -254 0
-118 -129 -210 -243 0
-118 -129 -211 -239 0
-118 -136 -188 -235 0
-118 -137 -188 -234 0
-118 -139 -169 -280 0
-118 -139 -170 -274 0
-118 -139 -172 -269 0
-118 -139 -173 -268 0
-118 -139 -188 -228 0
-118 -139 -190 -223 0
-118 -139 -191 -222 0
-118 -139 -195 -218 0
-118 -140 -170 -264 0
-118 -140 -172 -259 0
-118 -140 -173 -258 0
-118 -140 -194 -214 0
-118 -140 -200 -211 0
-118 -141 -169 -264 0
-118 -141 -172 -255 0
-118 -141 -173 -254 0
-118 -141 -200 -210 0
-118 -146 -170 -249 0
-118 -146 -172 -244 0
-118 -146 -173 -243 0
-118 -146 -200 -205 0
-118 -147 -169 -249 0
-118 -147 -173 -239 0
-118 -147 -180 -218 0
-118 -147 -190 -208 0
-118 -147 -200 -204 0
-118 -152 -172 -235 0
-118 -152 -173 -234 0
-118 -152 -179 -214 0
-118 -152 -180 -213 0
-118 -152 -185 -208 0
-118 -152 -186 -207 0
-118 -152 -200 -203 0
-118 -164 -188 -203 0
-119 -127 -203 -270 0
-119 -127 -210 -245 0
-119 -135 -181 -252 0
-119 -139 -169 -279 0
-119 -139 -170 -273 0
-119 -139 -171 -270 0
-119 -139 -174 -267 0
-119 -139 -188 -227 0
-119 -139 -189 -224 0
-119 -139 -192 -221 0
-119 -139 -193 -220 0
-119 -139 -196 -217 0
-119 -140 -170 -263 0
-119 -140 -171 -260 0
-119 -140 -174 -257 0
-119 -140 -184 -224 0
-119 -140 -187 -221 0
-119 -140 -193 -215 0
-119 -140 -196 -212 0
-119 -140 -199 -211 0
-119 -141 -169 -263 0
-119 -141 -171 -256 0
-119 -141 -174 -253 0
-119 -141 -184 -220 0
-119 -141 -187 -217 0
-119 -141 -189 -215 0
-119 -141 -192 -212 0
-119 -141 -199 -210 0
-119 -145 -169 -257 0
-119 -145 -170 -253 0
-119 -145 -188 -212 0
-119 -145 -189 -211 0
-119 -145 -193 -210 0
-119 -146 -170 -248 0
-119 -146 -171 -245 0
-119 -146 -174 -242 0
-119 -146 -178 -224 0
-119 -146 -181 -221 0
-119 -146 -193 -209 0
-119 -146 -196 -206 0
-119 -146 -199 -205 0
-119 -147 -169 -248 0
-119 -147 -171 -241 0
-119 -147 -174 -238 0
-119 -147 -178 -220 0
-119 -147 -181 -217 0
-119 -147 -189 -209 0
-119 -147 -192 -206 0
-119 -147 -199 -204 0
-119 -151 -169 -242 0
-119 -151 -170 -238 0
-119 -151 -188 -206 0
-119 -151 -189 -205 0
-119 -151 -193 -204 0
-119 -152 -174 -233 0
-119 -152 -178 -215 0
-119 -152 -181 -212 0
-119 -152 -184 -209 0
-119 -152 -187 -206 0
-119 -152 -199 -203 0
-119 -156 -170 -233 0
-119 -156 -178 -211 0
-119 -156 -184 -205 0
-119 -156 -193 -203 0
-119 -160 -169 -233 0
-119 -160 -178 -210 0
-119 -160 -184 -204 0
-119 -160 -189 -203 0
-120 -127 -203 -269 0
-120 -127 -204 -259 0
-120 -127 -205 -255 0
-120 -127 -210 -244 0
-120 -127 -211 -240 0
-120 -129 -203 -267 0
-120 -129 -204 -257 0
-120 -129 -205 -253 0
-120 -129 -210 -242 0
-120 -129 -211 -238 0
-120 -135 -188 -235 0
-120 -137 -188 -233 0
-120 -139 -169 -278 0
-120 -139 -170 -272 0
-120 -139 -171 -269 0
-120 -139 -173 -267 0
-120 -139 -188 -226 0
-120 -139 -189 -223 0
-120 -139 -191 -221 0
-120 -139 -193 -219 0
-120 -139 -195 -217 0
-120 -140 -170 -262 0
-120 -140 -171 -259 0
-120 -140 -173 -257 0
-120 -140 -184 -223 0
-120 -140 -193 -214 0
-120 -140 -195 -212 0
-120 -140 -198 -211 0
-120 -141 -169 -262 0
-120 -141 -171 -255 0
-120 -141 -173 -253 0
-120 -141 -184 -219 0
-120 -141 -186 -217 0
-120 -141 -189 -214 0
-120 -141 -191 -212 0
-120 -141 -198 -210 0
-120 -146 -170 -247 0
-120 -146 -171 -244 0
-120 -146 -173 -242 0
-120 -146 -178 -223 0
-120 -146 -193 -208 0
-120 -146 -195 -206 0
-120 -146 -198 -205 0
-120 -147 -169 -247 0
-120 -147 -171 -240 0
-120 -147 -173 -238 0
-120 -147 -178 -219 0
-120 -147 -191 -206 0
-120 -147 -198 -204 0
-120 -152 -171 -235 0
-120 -152 -173 -233 0
-120 -152 -178 -214 0
-120 -152 -180 -212 0
-120 -152 -184 -208 0
-120 -152 -198 -203 0
-120 -162 -188 -203 0
-121 -127 -203 -268 0
-121 -127 -204 -258 0
-121 -127 -205 -254 0
-121 -127 -210 -243 0
-121 -127 -211 -239 0
-121 -128 -203 -267 0
-121 -128 -204 -257 0
-121 -128 -205 -253 0
-121 -128 -210 -242 0
-121 -128 -211 -238 0
-121 -135 -188 -234 0
-121 -136 -178 -252 0
-121 -136 -188 -233 0
-121 -139 -169 -277 0
-121 -139 -170 -271 0
-121 -139 -171 -268 0
-121 -139 -172 -267 0
-121 -139 -188 -225 0
-121 -139 -189 -222 0
-121 -139 -190 -221 0
-121 -139 -193 -218 0
-121 -139 -194 -217 0
-121 -140 -170 -261 0
-121 -140 -171 -258 0
-121 -140 -172 -257 0
-121 -140 -193 -213 0
-121 -140 -194 -212 0
-121 -140 -197 -211 0
-121 -141 -169 -261 0
-121 -141 -171 -254 0
-121 -141 -172 -253 0
-121 -141 -184 -218 0
-121 -141 -189 -213 0
-121 -141 -197 -210 0
-121 -146 -170 -246 0
-121 -146 -171 -243 0
-121 -146 -172 -242 0
-121 -146 -178 -222 0
-121 -146 -179 -221 0
-121 -146 -193 -207 0
-121 -146 -194 -206 0
-121 -146 -197 -205 0
-121 -147 -169 -246 0
-121 -147 -171 -239 0
-121 -147 -172 -238 0
-121 -147 -179 -217 0
-121 -147 -189 -207 0
-121 -147 -190 -206 0
-121 -147 -197 -204 0
-121 -152 -171 -234 0
-121 -152 -172 -233 0
-121 -152 -178 -213 0
-121 -152 -179 -212 0
-121 -152 -184 -207 0
-121 -152 -185 -206 0
-121 -152 -197 -203 0
-121 -161 -188 -203 0
1 0
2 0
3 0
4 0
5 0
6 0
7 0
-8 0
-9 0
-10 0
-11 0
12 0
13 0
-14 0
-15 0
-16 0
-17 0
18 0
19 0
20 0
-21 0
23 0
24 0
-25 0
-26 0
