p cnf 286 2172
-2 -3 -4 -22 -23 -31 0
-2 -3 -5 -22 -24 -32 0
-2 -3 -6 -22 -25 -33 0
-2 -3 -7 -22 -26 -34 0
-2 -4 -5 -23 -24 -39 0
-2 -4 -6 -23 -25 -40 0
-2 -4 -7 -23 -26 -41 0
-2 -5 -6 -24 -25 -46 0
-2 -5 -7 -24 -26 -47 0
-2 -6 -7 -25 -26 -52 0
-3 -4 -5 -31 -32 -39 0
-3 -4 -6 -31 -33 -40 0
-3 -4 -7 -31 -34 -41 0
-3 -5 -6 -32 -33 -46 0
-3 -5 -7 -32 -34 -47 0
-3 -6 -7 -33 -34 -52 0
-4 -5 -6 -39 -40 -46 0
-4 -5 -7 -39 -41 -47 0
-4 -6 -7 -40 -41 -52 0
-5 -6 -7 -46 -47 -52 0
8 9 10 61 62 64 0
8 9 11 61 63 65 0
8 10 11 62 63 66 0
9 10 11 64 65 66 0
-12 -18 -19 -27 -28 -61 0
-12 -18 -20 -27 -29 -62 0
-12 -18 -21 -27 -30 -63 0
-12 -19 -20 -28 -29 -64 0
-12 -19 -21 -28 -30 -65 0
-12 -20 -21 -29 -30 -66 0
13 14 15 31 32 39 0
13 14 16 31 33 40 0
13 14 17 31 34 41 0
13 15 16 32 33 46 0
13 15 17 32 34 47 0
13 16 17 33 34 52 0
14 15 16 39 40 46 0
14 15 17 39 41 47 0
14 16 17 40 41 52 0
15 16 17 46 47 52 0
-18 -19 -20 -61 -62 -64 0
-18 -19 -21 -61 -63 -65 0
-18 -20 -21 -62 -63 -66 0
-19 -20 -21 -64 -65 -66 0
22 23 26 31 34 41 0
22 23 27 31 35 42 0
22 23 28 31 36 43 0
22 23 29 31 37 44 0
22 23 30 31 38 45 0
22 24 27 32 35 48 0
22 24 28 32 36 49 0
22 24 30 32 38 51 0
22 25 27 33 35 53 0
22 25 28 33 36 54 0
22 25 29 33 37 55 0
22 25 30 33 38 56 0
22 26 27 34 35 57 0
22 26 28 34 36 58 0
22 26 29 34 37 59 0
22 26 30 34 38 60 0
22 27 28 35 36 61 0
22 28 29 36 37 64 0
22 28 30 36 38 65 0
22 29 30 37 38 66 0
23 24 27 39 42 48 0
23 24 28 39 43 49 0
23 24 29 39 44 50 0
23 24 30 39 45 51 0
23 25 27 40 42 53 0
23 25 28 40 43 54 0
23 25 29 40 44 55 0
23 25 30 40 45 56 0
23 26 27 41 42 57 0
23 26 28 41 43 58 0
23 26 30 41 45 60 0
23 27 28 42 43 61 0
23 27 29 42 44 62 0
23 27 30 42 45 63 0
23 28 30 43 45 65 0
23 29 30 44 45 66 0
24 25 27 46 48 53 0
24 25 28 46 49 54 0
24 25 29 46 50 55 0
24 25 30 46 51 56 0
24 26 27 47 48 57 0
24 26 28 47 49 58 0
24 26 29 47 50 59 0
24 26 30 47 51 60 0
24 28 29 49 50 64 0
24 28 30 49 51 65 0
24 29 30 50 51 66 0
25 26 27 52 53 57 0
25 26 28 52 54 58 0
25 26 29 52 55 59 0
25 26 30 52 56 60 0
25 27 28 53 54 61 0
25 28 29 54 55 64 0
25 28 30 54 56 65 0
25 29 30 55 56 66 0
26 27 28 57 58 61 0
26 28 30 58 60 65 0
26 29 30 59 60 66 0
-31 -35 -36 -42 -43 -61 0
31 35 36 42 43 61 0
-31 -35 -37 -42 -44 -62 0
-31 -35 -38 -42 -45 -63 0
31 35 38 42 45 63 0
-31 -36 -37 -43 -44 -64 0
-31 -36 -38 -43 -45 -65 0
-31 -37 -38 -44 -45 -66 0
31 37 38 44 45 66 0
-32 -35 -36 -48 -49 -61 0
32 35 36 48 49 61 0
-32 -35 -37 -48 -50 -62 0
-32 -35 -38 -48 -51 -63 0
32 35 38 48 51 63 0
-32 -36 -37 -49 -50 -64 0
-32 -36 -38 -49 -51 -65 0
-32 -37 -38 -50 -51 -66 0
-33 -35 -36 -53 -54 -61 0
-33 -35 -37 -53 -55 -62 0
-33 -35 -38 -53 -56 -63 0
-33 -36 -37 -54 -55 -64 0
-33 -36 -38 -54 -56 -65 0
-33 -37 -38 -55 -56 -66 0
-34 -35 -36 -57 -58 -61 0
-34 -35 -37 -57 -59 -62 0
-34 -35 -38 -57 -60 -63 0
-34 -36 -37 -58 -59 -64 0
-34 -36 -38 -58 -60 -65 0
-34 -37 -38 -59 -60 -66 0
-39 -42 -43 -48 -49 -61 0
-39 -42 -45 -48 -51 -63 0
39 42 45 48 51 63 0
-39 -43 -44 -49 -50 -64 0
-39 -43 -45 -49 -51 -65 0
-39 -44 -45 -50 -51 -66 0
-40 -42 -43 -53 -54 -61 0
-40 -42 -44 -53 -55 -62 0
-40 -42 -45 -53 -56 -63 0
-40 -43 -44 -54 -55 -64 0
-40 -43 -45 -54 -56 -65 0
-40 -44 -45 -55 -56 -66 0
-41 -42 -43 -57 -58 -61 0
41 42 43 57 58 61 0
-41 -42 -44 -57 -59 -62 0
-41 -42 -45 -57 -60 -63 0
-41 -43 -44 -58 -59 -64 0
-46 -48 -49 -53 -54 -61 0
-46 -48 -50 -53 -55 -62 0
-46 -48 -51 -53 -56 -63 0
-46 -49 -50 -54 -55 -64 0
-46 -49 -51 -54 -56 -65 0
-46 -50 -51 -55 -56 -66 0
-47 -48 -49 -57 -58 -61 0
47 48 49 57 58 61 0
-47 -48 -50 -57 -59 -62 0
-47 -48 -51 -57 -60 -63 0
-47 -49 -50 -58 -59 -64 0
-47 -49 -51 -58 -60 -65 0
-47 -50 -51 -59 -60 -66 0
-52 -53 -54 -57 -58 -61 0
-52 -53 -55 -57 -59 -62 0
-52 -53 -56 -57 -60 -63 0
-52 -54 -55 -58 -59 -64 0
-52 -54 -56 -58 -60 -65 0
-52 -55 -56 -59 -60 -66 0
67 -1 -2 -12 0
77 -2 -3 -22 0
78 -2 -4 -23 0
79 -2 -5 -24 0
80 -2 -6 -25 0
81 -2 -7 -26 0
86 -3 -4 -31 0
87 -3 -5 -32 0
88 -3 -6 -33 0
89 -3 -7 -34 0
94 -4 -5 -39 0
95 -4 -6 -40 0
96 -4 -7 -41 0
101 -5 -6 -46 0
102 -5 -7 -47 0
107 -6 -7 -52 0
116 8 9 61 0
117 8 10 62 0
118 8 11 63 0
119 9 10 64 0
120 9 11 65 0
121 10 11 66 0
127 -12 -18 -27 0
128 -12 -19 -28 0
129 -12 -20 -29 0
130 -12 -21 -30 0
131 13 14 31 0
132 13 15 32 0
133 13 16 33 0
134 13 17 34 0
139 14 15 39 0
140 14 16 40 0
141 14 17 41 0
146 15 16 46 0
147 15 17 47 0
152 16 17 52 0
161 -18 -19 -61 0
162 -18 -20 -62 0
163 -18 -21 -63 0
164 -19 -20 -64 0
165 -19 -21 -65 0
166 -20 -21 -66 0
167 22 23 31 0
168 22 24 32 0
169 22 25 33 0
170 22 26 34 0
171 -22 -27 -35 0
171 22 27 35 0
172 -22 -28 -36 0
172 22 28 36 0
173 -22 -29 -37 0
173 22 29 37 0
174 -22 -30 -38 0
174 22 30 38 0
175 23 24 39 0
176 23 25 40 0
177 -23 -26 -41 0
177 23 26 41 0
178 -23 -27 -42 0
178 23 27 42 0
179 -23 -28 -43 0
179 23 28 43 0
180 -23 -29 -44 0
180 23 29 44 0
181 -23 -30 -45 0
181 23 30 45 0
182 24 25 46 0
183 -24 -26 -47 0
183 24 26 47 0
184 -24 -27 -48 0
184 24 27 48 0
185 -24 -28 -49 0
185 24 28 49 0
186 -24 -29 -50 0
186 24 29 50 0
187 -24 -30 -51 0
187 24 30 51 0
188 -25 -26 -52 0
188 25 26 52 0
189 -25 -27 -53 0
189 25 27 53 0
190 -25 -28 -54 0
190 25 28 54 0
191 -25 -29 -55 0
191 25 29 55 0
192 -25 -30 -56 0
192 25 30 56 0
193 -26 -27 -57 0
193 26 27 57 0
194 -26 -28 -58 0
194 26 28 58 0
195 -26 -29 -59 0
195 26 29 59 0
196 -26 -30 -60 0
196 26 30 60 0
197 27 28 61 0
198 27 29 62 0
199 27 30 63 0
200 -28 -29 -64 0
200 28 29 64 0
201 28 30 65 0
202 29 30 66 0
206 -31 -35 -42 0
206 31 35 42 0
207 -31 -36 -43 0
207 31 36 43 0
208 -31 -37 -44 0
208 31 37 44 0
209 -31 -38 -45 0
209 31 38 45 0
210 32 33 46 0
212 -32 -35 -48 0
212 32 35 48 0
213 -32 -36 -49 0
213 32 36 49 0
214 -32 -37 -50 0
214 32 37 50 0
215 -32 -38 -51 0
215 32 38 51 0
217 -33 -35 -53 0
217 33 35 53 0
218 -33 -36 -54 0
218 33 36 54 0
219 -33 -37 -55 0
219 33 37 55 0
220 -33 -38 -56 0
220 33 38 56 0
221 -34 -35 -57 0
221 34 35 57 0
222 -34 -36 -58 0
222 34 36 58 0
223 -34 -37 -59 0
223 34 37 59 0
224 -34 -38 -60 0
224 34 38 60 0
225 -35 -36 -61 0
225 35 36 61 0
226 -35 -37 -62 0
226 35 37 62 0
227 -35 -38 -63 0
227 35 38 63 0
228 -36 -37 -64 0
228 36 37 64 0
229 -36 -38 -65 0
229 36 38 65 0
230 -37 -38 -66 0
230 37 38 66 0
233 -39 -42 -48 0
233 39 42 48 0
234 -39 -43 -49 0
234 39 43 49 0
235 -39 -44 -50 0
235 39 44 50 0
236 -39 -45 -51 0
236 39 45 51 0
238 -40 -42 -53 0
238 40 42 53 0
239 -40 -43 -54 0
239 40 43 54 0
240 -40 -44 -55 0
240 40 44 55 0
241 -40 -45 -56 0
241 40 45 56 0
242 -41 -42 -57 0
242 41 42 57 0
243 -41 -43 -58 0
243 41 43 58 0
244 -41 -44 -59 0
244 41 44 59 0
245 -41 -45 -60 0
245 41 45 60 0
246 -42 -43 -61 0
246 42 43 61 0
247 -42 -44 -62 0
247 42 44 62 0
248 -42 -45 -63 0
248 42 45 63 0
249 -43 -44 -64 0
249 43 44 64 0
250 -43 -45 -65 0
250 43 45 65 0
251 -44 -45 -66 0
251 44 45 66 0
253 -46 -48 -53 0
253 46 48 53 0
254 -46 -49 -54 0
254 46 49 54 0
255 -46 -50 -55 0
255 46 50 55 0
256 -46 -51 -56 0
256 46 51 56 0
257 -47 -48 -57 0
257 47 48 57 0
258 -47 -49 -58 0
258 47 49 58 0
259 -47 -50 -59 0
259 47 50 59 0
260 -47 -51 -60 0
260 47 51 60 0
261 -48 -49 -61 0
261 48 49 61 0
262 -48 -50 -62 0
262 48 50 62 0
263 -48 -51 -63 0
263 48 51 63 0
264 -49 -50 -64 0
264 49 50 64 0
265 -49 -51 -65 0
265 49 51 65 0
266 -50 -51 -66 0
266 50 51 66 0
267 -52 -53 -57 0
267 52 53 57 0
268 -52 -54 -58 0
268 52 54 58 0
269 -52 -55 -59 0
269 52 55 59 0
270 -52 -56 -60 0
270 52 56 60 0
271 -53 -54 -61 0
271 53 54 61 0
272 -53 -55 -62 0
272 53 55 62 0
273 -53 -56 -63 0
273 53 56 63 0
274 -54 -55 -64 0
274 54 55 64 0
275 -54 -56 -65 0
275 54 56 65 0
276 -55 -56 -66 0
276 55 56 66 0
277 -57 -58 -61 0
277 57 58 61 0
278 -57 -59 -62 0
278 57 59 62 0
279 -57 -60 -63 0
279 57 60 63 0
280 -58 -59 -64 0
280 58 59 64 0
281 -58 -60 -65 0
281 58 60 65 0
282 -59 -60 -66 0
282 59 60 66 0
-67 -206 -255 -281 0
-67 -206 -259 -275 0
-67 -206 -260 -274 0
-67 -207 -253 -282 0
-67 -207 -256 -278 0
-67 -207 -260 -272 0
-67 -208 -256 -277 0
-67 -208 -257 -275 0
-67 -208 -260 -271 0
-67 -208 -261 -270 0
-67 -208 -265 -267 0
-67 -209 -253 -280 0
-67 -209 -255 -277 0
-67 -209 -257 -274 0
-67 -209 -258 -272 0
-67 -212 -240 -281 0
-67 -212 -241 -280 0
-67 -212 -243 -276 0
-67 -212 -244 -275 0
-67 -212 -251 -268 0
-67 -213 -238 -282 0
-67 -213 -244 -273 0
-67 -215 -242 -274 0
-67 -215 -243 -272 0
-67 -217 -245 -264 0
-67 -218 -236 -278 0
-67 -219 -243 -263 0
-67 -221 -234 -276 0
-67 -221 -235 -275 0
-67 -221 -236 -274 0
-67 -222 -233 -276 0
-67 -222 -236 -272 0
-67 -223 -233 -275 0
-67 -223 -239 -263 0
-67 -223 -241 -261 0
-67 -223 -248 -254 0
-67 -224 -233 -274 0
-67 -224 -234 -272 0
-67 -224 -238 -264 0
-67 -224 -239 -262 0
-67 -224 -240 -261 0
-67 -225 -241 -259 0
-67 -225 -244 -256 0
-67 -225 -245 -255 0
-67 -226 -234 -270 0
-67 -226 -236 -268 0
-67 -226 -241 -258 0
-67 -226 -243 -256 0
-67 -226 -245 -254 0
-67 -227 -235 -268 0
-67 -227 -244 -254 0
-67 -228 -238 -260 0
-67 -229 -235 -267 0
-67 -229 -242 -255 0
-67 -229 -244 -253 0
-67 -230 -233 -268 0
-67 -230 -234 -267 0
-67 -230 -243 -253 0
-77 -139 -273 -280 0
-77 -140 -261 -282 0
-77 -140 -262 -281 0
-77 -140 -263 -280 0
-77 -140 -264 -279 0
-77 -140 -265 -278 0
-77 -140 -266 -277 0
-77 -141 -261 -276 0
-77 -141 -263 -274 0
-77 -141 -264 -273 0
-77 -141 -265 -272 0
-77 -141 -266 -271 0
-77 -147 -246 -276 0
-77 -147 -247 -275 0
-77 -147 -249 -273 0
-77 -152 -246 -266 0
-77 -152 -247 -265 0
-77 -152 -248 -264 0
-77 -152 -249 -263 0
-77 -152 -250 -262 0
-77 -152 -251 -261 0
-77 -161 -235 -270 0
-77 -161 -236 -269 0
-77 -161 -240 -260 0
-77 -161 -241 -259 0
-77 -161 -244 -256 0
-77 -161 -245 -255 0
-77 -162 -234 -270 0
-77 -162 -236 -268 0
-77 -162 -243 -256 0
-77 -162 -245 -254 0
-77 -163 -234 -269 0
-77 -163 -235 -268 0
-77 -163 -239 -259 0
-77 -163 -240 -258 0
-77 -163 -243 -255 0
-77 -163 -244 -254 0
-77 -164 -233 -270 0
-77 -164 -236 -267 0
-77 -164 -238 -260 0
-77 -164 -241 -257 0
-77 -164 -242 -256 0
-77 -164 -245 -253 0
-77 -165 -233 -269 0
-77 -165 -235 -267 0
-77 -165 -238 -259 0
-77 -165 -240 -257 0
-77 -165 -244 -253 0
-77 -166 -233 -268 0
-77 -166 -234 -267 0
-77 -166 -238 -258 0
-77 -166 -239 -257 0
-77 -166 -243 -253 0
-78 -132 -271 -282 0
-78 -132 -272 -281 0
-78 -132 -274 -279 0
-78 -132 -276 -277 0
-78 -133 -264 -279 0
-78 -133 -265 -278 0
-78 -134 -262 -275 0
-78 -134 -263 -274 0
-78 -134 -265 -272 0
-78 -146 -226 -281 0
-78 -146 -227 -280 0
-78 -146 -230 -277 0
-78 -147 -226 -275 0
-78 -147 -228 -273 0
-78 -147 -229 -272 0
-78 -147 -230 -271 0
-78 -152 -228 -263 0
-78 -152 -230 -261 0
-78 -161 -214 -270 0
-78 -161 -215 -269 0
-78 -161 -219 -260 0
-78 -161 -220 -259 0
-78 -161 -223 -256 0
-78 -161 -224 -255 0
-78 -162 -213 -270 0
-78 -162 -215 -268 0
-78 -162 -218 -260 0
-78 -162 -220 -258 0
-78 -162 -222 -256 0
-78 -163 -213 -269 0
-78 -163 -214 -268 0
-78 -163 -218 -259 0
-78 -163 -219 -258 0
-78 -163 -222 -255 0
-78 -164 -212 -270 0
-78 -164 -215 -267 0
-78 -164 -217 -260 0
-78 -164 -220 -257 0
-78 -164 -221 -256 0
-78 -164 -224 -253 0
-78 -165 -212 -269 0
-78 -165 -214 -267 0
-78 -165 -217 -259 0
-78 -165 -219 -257 0
-78 -165 -221 -255 0
-78 -165 -223 -253 0
-78 -166 -212 -268 0
-78 -166 -213 -267 0
-78 -166 -217 -258 0
-78 -166 -218 -257 0
-78 -166 -221 -254 0
-78 -166 -222 -253 0
-79 -131 -271 -282 0
-79 -131 -272 -281 0
-79 -131 -275 -278 0
-79 -133 -246 -282 0
-79 -133 -248 -280 0
-79 -133 -251 -277 0
-79 -134 -247 -275 0
-79 -134 -250 -272 0
-79 -140 -225 -282 0
-79 -140 -226 -281 0
-79 -140 -227 -280 0
-79 -140 -228 -279 0
-79 -140 -230 -277 0
-79 -141 -225 -276 0
-79 -141 -226 -275 0
-79 -141 -227 -274 0
-79 -141 -228 -273 0
-79 -141 -230 -271 0
-79 -152 -225 -251 0
-79 -152 -227 -249 0
-79 -152 -228 -248 0
-79 -152 -230 -246 0
-79 -161 -208 -270 0
-79 -161 -209 -269 0
-79 -161 -219 -245 0
-79 -161 -220 -244 0
-79 -161 -224 -240 0
-79 -162 -207 -270 0
-79 -162 -209 -268 0
-79 -162 -218 -245 0
-79 -162 -220 -243 0
-79 -162 -222 -241 0
-79 -162 -224 -239 0
-79 -163 -207 -269 0
-79 -163 -208 -268 0
-79 -163 -218 -244 0
-79 -163 -219 -243 0
-79 -163 -222 -240 0
-79 -163 -223 -239 0
-79 -164 -206 -270 0
-79 -164 -209 -267 0
-79 -164 -217 -245 0
-79 -164 -220 -242 0
-79 -164 -221 -241 0
-79 -164 -224 -238 0
-79 -165 -206 -269 0
-79 -165 -208 -267 0
-79 -166 -206 -268 0
-79 -166 -217 -243 0
-79 -166 -218 -242 0
-79 -166 -221 -239 0
-79 -166 -222 -238 0
-80 -132 -249 -279 0
-80 -132 -250 -278 0
-80 -139 -225 -282 0
-80 -139 -226 -281 0
-80 -139 -227 -280 0
-80 -139 -229 -278 0
-80 -141 -226 -265 0
-80 -141 -229 -262 0
-80 -141 -230 -261 0
-80 -147 -226 -250 0
-80 -147 -230 -246 0
-80 -161 -208 -260 0
-80 -161 -209 -259 0
-80 -161 -214 -245 0
-80 -161 -223 -236 0
-80 -161 -224 -235 0
-80 -162 -207 -260 0
-80 -162 -209 -258 0
-80 -162 -213 -245 0
-80 -162 -215 -243 0
-80 -162 -222 -236 0
-80 -162 -224 -234 0
-80 -163 -207 -259 0
-80 -163 -208 -258 0
-80 -163 -213 -244 0
-80 -163 -222 -235 0
-80 -163 -223 -234 0
-80 -164 -206 -260 0
-80 -164 -209 -257 0
-80 -164 -212 -245 0
-80 -164 -215 -242 0
-80 -164 -221 -236 0
-80 -164 -224 -233 0
-80 -165 -206 -259 0
-80 -165 -212 -244 0
-80 -165 -221 -235 0
-80 -165 -223 -233 0
-80 -166 -206 -258 0
-80 -166 -207 -257 0
-80 -166 -212 -243 0
-80 -166 -213 -242 0
-80 -166 -221 -234 0
-80 -166 -222 -233 0
-81 -131 -264 -273 0
-81 -131 -265 -272 0
-81 -132 -247 -275 0
-81 -132 -248 -274 0
-81 -132 -249 -273 0
-81 -132 -250 -272 0
-81 -132 -251 -271 0
-81 -133 -247 -265 0
-81 -139 -226 -275 0
-81 -139 -228 -273 0
-81 -139 -229 -272 0
-81 -139 -230 -271 0
-81 -140 -230 -261 0
-81 -146 -226 -250 0
-81 -146 -227 -249 0
-81 -146 -228 -248 0
-81 -146 -230 -246 0
-81 -161 -208 -256 0
-81 -161 -214 -241 0
-81 -161 -215 -240 0
-81 -161 -219 -236 0
-81 -162 -207 -256 0
-81 -162 -209 -254 0
-81 -162 -213 -241 0
-81 -162 -215 -239 0
-81 -162 -218 -236 0
-81 -162 -220 -234 0
-81 -163 -207 -255 0
-81 -163 -208 -254 0
-81 -163 -213 -240 0
-81 -163 -214 -239 0
-81 -163 -218 -235 0
-81 -163 -219 -234 0
-81 -164 -206 -256 0
-81 -164 -209 -253 0
-81 -164 -212 -241 0
-81 -164 -215 -238 0
-81 -164 -217 -236 0
-81 -165 -206 -255 0
-81 -165 -208 -253 0
-81 -165 -212 -240 0
-81 -165 -214 -238 0
-81 -165 -217 -235 0
-81 -165 -219 -233 0
-81 -166 -206 -254 0
-81 -166 -207 -253 0
-81 -166 -212 -239 0
-81 -166 -213 -238 0
-81 -166 -217 -234 0
-81 -166 -218 -233 0
-86 -127 -254 -282 0
-86 -127 -256 -280 0
-86 -127 -258 -276 0
-86 -127 -260 -274 0
-86 -127 -265 -269 0
-86 -128 -253 -282 0
-86 -128 -255 -279 0
-86 -128 -257 -276 0
-86 -128 -260 -272 0
-86 -128 -263 -269 0
-86 -128 -266 -267 0
-86 -129 -256 -277 0
-86 -129 -260 -271 0
-86 -129 -261 -270 0
-86 -130 -253 -280 0
-86 -130 -255 -277 0
-86 -130 -257 -274 0
-86 -130 -258 -272 0
-86 -130 -262 -268 0
-86 -146 -197 -282 0
-86 -146 -199 -280 0
-86 -146 -200 -279 0
-86 -146 -202 -277 0
-86 -147 -202 -271 0
-86 -152 -198 -265 0
-86 -152 -199 -264 0
-86 -152 -200 -263 0
-86 -152 -202 -261 0
-86 -161 -182 -282 0
-86 -161 -183 -276 0
-86 -161 -186 -270 0
-86 -161 -187 -269 0
-86 -161 -188 -266 0
-86 -161 -191 -260 0
-86 -161 -195 -256 0
-86 -161 -196 -255 0
-86 -162 -182 -281 0
-86 -162 -183 -275 0
-86 -162 -185 -270 0
-86 -162 -187 -268 0
-86 -162 -188 -265 0
-86 -162 -190 -260 0
-86 -162 -192 -258 0
-86 -162 -196 -254 0
-86 -163 -182 -280 0
-86 -163 -183 -274 0
-86 -163 -185 -269 0
-86 -163 -186 -268 0
-86 -163 -188 -264 0
-86 -163 -191 -258 0
-86 -163 -194 -255 0
-86 -163 -195 -254 0
-86 -164 -182 -279 0
-86 -164 -183 -273 0
-86 -164 -184 -270 0
-86 -164 -187 -267 0
-86 -164 -188 -263 0
-86 -164 -189 -260 0
-86 -164 -192 -257 0
-86 -164 -193 -256 0
-86 -164 -196 -253 0
-86 -165 -182 -278 0
-86 -165 -183 -272 0
-86 -165 -184 -269 0
-86 -165 -186 -267 0
-86 -165 -188 -262 0
-86 -165 -189 -259 0
-86 -165 -191 -257 0
-86 -165 -193 -255 0
-86 -165 -195 -253 0
-86 -166 -182 -277 0
-86 -166 -183 -271 0
-86 -166 -184 -268 0
-86 -166 -185 -267 0
-86 -166 -188 -261 0
-86 -166 -189 -258 0
-86 -166 -190 -257 0
-86 -166 -193 -254 0
-86 -166 -194 -253 0
-87 -127 -239 -282 0
-87 -127 -240 -281 0
-87 -127 -243 -276 0
-87 -127 -245 -274 0
-87 -127 -250 -269 0
-87 -127 -251 -268 0
-87 -128 -238 -282 0
-87 -128 -240 -279 0
-87 -128 -244 -273 0
-87 -128 -245 -272 0
-87 -128 -248 -269 0
-87 -128 -251 -267 0
-87 -129 -238 -281 0
-87 -129 -241 -277 0
-87 -130 -238 -280 0
-87 -130 -239 -278 0
-87 -130 -240 -277 0
-87 -130 -242 -274 0
-87 -130 -243 -272 0
-87 -130 -247 -268 0
-87 -130 -249 -267 0
-87 -140 -198 -281 0
-87 -140 -199 -280 0
-87 -140 -200 -279 0
-87 -140 -201 -278 0
-87 -141 -197 -276 0
-87 -141 -199 -274 0
-87 -141 -202 -271 0
-87 -152 -197 -251 0
-87 -152 -200 -248 0
-87 -152 -201 -247 0
-87 -152 -202 -246 0
-87 -161 -176 -282 0
-87 -161 -177 -276 0
-87 -161 -180 -270 0
-87 -161 -188 -251 0
-87 -161 -191 -245 0
-87 -161 -192 -244 0
-87 -161 -195 -241 0
-87 -162 -176 -281 0
-87 -162 -177 -275 0
-87 -162 -179 -270 0
-87 -162 -188 -250 0
-87 -162 -192 -243 0
-87 -162 -194 -241 0
-87 -162 -196 -239 0
-87 -163 -176 -280 0
-87 -163 -177 -274 0
-87 -163 -188 -249 0
-87 -163 -190 -244 0
-87 -163 -191 -243 0
-87 -164 -176 -279 0
-87 -164 -177 -273 0
-87 -164 -178 -270 0
-87 -164 -181 -267 0
-87 -164 -188 -248 0
-87 -164 -189 -245 0
-87 -164 -192 -242 0
-87 -164 -193 -241 0
-87 -164 -196 -238 0
-87 -165 -176 -278 0
-87 -165 -177 -272 0
-87 -165 -178 -269 0
-87 -165 -180 -267 0
-87 -165 -188 -247 0
-87 -165 -191 -242 0
-87 -165 -193 -240 0
-87 -165 -195 -238 0
-87 -166 -176 -277 0
-87 -166 -177 -271 0
-87 -166 -178 -268 0
-87 -166 -179 -267 0
-87 -166 -188 -246 0
-87 -166 -189 -243 0
-87 -166 -190 -242 0
-87 -166 -193 -239 0
-87 -166 -194 -238 0
-88 -127 -234 -282 0
-88 -127 -235 -281 0
-88 -127 -243 -266 0
-88 -127 -244 -265 0
-88 -127 -245 -264 0
-88 -127 -250 -259 0
-88 -127 -251 -258 0
-88 -128 -233 -282 0
-88 -128 -236 -278 0
-88 -128 -242 -266 0
-88 -128 -244 -263 0
-88 -128 -248 -259 0
-88 -129 -233 -281 0
-88 -129 -236 -277 0
-88 -129 -242 -265 0
-88 -129 -243 -263 0
-88 -129 -245 -261 0
-88 -129 -248 -258 0
-88 -130 -244 -261 0
-88 -130 -246 -259 0
-88 -130 -249 -257 0
-88 -139 -198 -281 0
-88 -139 -200 -279 0
-88 -139 -201 -278 0
-88 -139 -202 -277 0
-88 -141 -198 -265 0
-88 -141 -199 -264 0
-88 -141 -200 -263 0
-88 -141 -201 -262 0
-88 -141 -202 -261 0
-88 -147 -199 -249 0
-88 -147 -200 -248 0
-88 -147 -201 -247 0
-88 -147 -202 -246 0
-88 -161 -175 -282 0
-88 -161 -177 -266 0
-88 -161 -180 -260 0
-88 -161 -181 -259 0
-88 -161 -183 -251 0
-88 -161 -186 -245 0
-88 -161 -187 -244 0
-88 -161 -196 -235 0
-88 -162 -175 -281 0
-88 -162 -177 -265 0
-88 -162 -179 -260 0
-88 -162 -181 -258 0
-88 -162 -183 -250 0
-88 -162 -185 -245 0
-88 -162 -187 -243 0
-88 -162 -194 -236 0
-88 -163 -175 -280 0
-88 -163 -177 -264 0
-88 -163 -179 -259 0
-88 -163 -180 -258 0
-88 -163 -183 -249 0
-88 -163 -185 -244 0
-88 -163 -186 -243 0
-88 -163 -194 -235 0
-88 -163 -195 -234 0
-88 -164 -175 -279 0
-88 -164 -177 -263 0
-88 -164 -178 -260 0
-88 -164 -181 -257 0
-88 -164 -183 -248 0
-88 -164 -184 -245 0
-88 -164 -187 -242 0
-88 -164 -193 -236 0
-88 -164 -196 -233 0
-88 -165 -175 -278 0
-88 -165 -177 -262 0
-88 -165 -178 -259 0
-88 -165 -183 -247 0
-88 -165 -184 -244 0
-88 -165 -186 -242 0
-88 -165 -193 -235 0
-88 -165 -195 -233 0
-88 -166 -175 -277 0
-88 -166 -177 -261 0
-88 -166 -178 -258 0
-88 -166 -179 -257 0
-88 -166 -183 -246 0
-88 -166 -184 -243 0
-88 -166 -185 -242 0
-88 -166 -193 -234 0
-88 -166 -194 -233 0
-89 -127 -234 -276 0
-89 -127 -235 -275 0
-89 -127 -236 -274 0
-89 -127 -239 -266 0
-89 -127 -240 -265 0
-89 -127 -241 -264 0
-89 -127 -249 -256 0
-89 -127 -250 -255 0
-89 -127 -251 -254 0
-89 -128 -233 -276 0
-89 -128 -235 -273 0
-89 -128 -236 -272 0
-89 -128 -238 -266 0
-89 -128 -240 -263 0
-89 -128 -241 -262 0
-89 -128 -248 -255 0
-89 -129 -233 -275 0
-89 -129 -234 -273 0
-89 -129 -236 -271 0
-89 -129 -239 -263 0
-89 -129 -241 -261 0
-89 -129 -246 -256 0
-89 -129 -248 -254 0
-89 -129 -250 -253 0
-89 -130 -233 -274 0
-89 -130 -234 -272 0
-89 -130 -239 -262 0
-89 -130 -240 -261 0
-89 -130 -246 -255 0
-89 -130 -247 -254 0
-89 -139 -197 -276 0
-89 -139 -198 -275 0
-89 -139 -199 -274 0
-89 -139 -202 -271 0
-89 -140 -198 -265 0
-89 -140 -199 -264 0
-89 -140 -200 -263 0
-89 -140 -201 -262 0
-89 -140 -202 -261 0
-89 -161 -175 -276 0
-89 -161 -176 -266 0
-89 -161 -180 -256 0
-89 -161 -181 -255 0
-89 -161 -182 -251 0
-89 -161 -186 -241 0
-89 -161 -187 -240 0
-89 -161 -191 -236 0
-89 -161 -192 -235 0
-89 -162 -175 -275 0
-89 -162 -176 -265 0
-89 -162 -179 -256 0
-89 -162 -181 -254 0
-89 -162 -182 -250 0
-89 -162 -185 -241 0
-89 -162 -187 -239 0
-89 -162 -190 -236 0
-89 -162 -192 -234 0
-89 -163 -175 -274 0
-89 -163 -176 -264 0
-89 -163 -179 -255 0
-89 -163 -180 -254 0
-89 -163 -182 -249 0
-89 -163 -185 -240 0
-89 -163 -186 -239 0
-89 -163 -190 -235 0
-89 -163 -191 -234 0
-89 -164 -175 -273 0
-89 -164 -176 -263 0
-89 -164 -178 -256 0
-89 -164 -181 -253 0
-89 -164 -182 -248 0
-89 -164 -184 -241 0
-89 -164 -187 -238 0
-89 -164 -189 -236 0
-89 -164 -192 -233 0
-89 -165 -175 -272 0
-89 -165 -176 -262 0
-89 -165 -178 -255 0
-89 -165 -180 -253 0
-89 -165 -182 -247 0
-89 -165 -184 -240 0
-89 -165 -186 -238 0
-89 -165 -189 -235 0
-89 -165 -191 -233 0
-89 -166 -175 -271 0
-89 -166 -176 -261 0
-89 -166 -178 -254 0
-89 -166 -179 -253 0
-89 -166 -182 -246 0
-89 -166 -184 -239 0
-89 -166 -185 -238 0
-89 -166 -189 -234 0
-89 -166 -190 -233 0
-94 -127 -218 -282 0
-94 -127 -219 -281 0
-94 -127 -222 -276 0
-94 -127 -224 -274 0
-94 -127 -228 -270 0
-94 -127 -229 -269 0
-94 -127 -230 -268 0
-94 -128 -217 -282 0
-94 -128 -219 -279 0
-94 -128 -223 -273 0
-94 -128 -224 -272 0
-94 -128 -226 -270 0
-94 -128 -227 -269 0
-94 -129 -218 -279 0
-94 -129 -221 -275 0
-94 -129 -222 -273 0
-94 -129 -224 -271 0
-94 -129 -225 -270 0
-94 -129 -227 -268 0
-94 -130 -217 -280 0
-94 -130 -219 -277 0
-94 -130 -221 -274 0
-94 -130 -222 -272 0
-94 -130 -225 -269 0
-94 -130 -226 -268 0
-94 -130 -228 -267 0
-94 -133 -197 -282 0
-94 -133 -200 -279 0
-94 -133 -201 -278 0
-94 -133 -202 -277 0
-94 -134 -197 -276 0
-94 -134 -198 -275 0
-94 -134 -199 -274 0
-94 -134 -200 -273 0
-94 -134 -201 -272 0
-94 -134 -202 -271 0
-94 -152 -198 -229 0
-94 -152 -199 -228 0
-94 -152 -200 -227 0
-94 -152 -202 -225 0
-94 -161 -169 -282 0
-94 -161 -170 -276 0
-94 -161 -173 -270 0
-94 -161 -174 -269 0
-94 -161 -188 -230 0
-94 -161 -191 -224 0
-94 -161 -192 -223 0
-94 -161 -195 -220 0
-94 -161 -196 -219 0
-94 -162 -169 -281 0
-94 -162 -170 -275 0
-94 -162 -172 -270 0
-94 -162 -174 -268 0
-94 -162 -188 -229 0
-94 -162 -190 -224 0
-94 -162 -192 -222 0
-94 -162 -194 -220 0
-94 -162 -196 -218 0
-94 -163 -169 -280 0
-94 -163 -170 -274 0
-94 -163 -172 -269 0
-94 -163 -173 -268 0
-94 -163 -188 -228 0
-94 -163 -190 -223 0
-94 -163 -191 -222 0
-94 -163 -194 -219 0
-94 -163 -195 -218 0
-94 -164 -169 -279 0
-94 -164 -170 -273 0
-94 -164 -171 -270 0
-94 -164 -174 -267 0
-94 -164 -188 -227 0
-94 -164 -189 -224 0
-94 -164 -192 -221 0
-94 -164 -193 -220 0
-94 -164 -196 -217 0
-94 -165 -169 -278 0
-94 -165 -170 -272 0
-94 -165 -171 -269 0
-94 -165 -173 -267 0
-94 -165 -188 -226 0
-94 -165 -189 -223 0
-94 -165 -191 -221 0
-94 -165 -193 -219 0
-94 -165 -195 -217 0
-94 -166 -169 -277 0
-94 -166 -170 -271 0
-94 -166 -171 -268 0
-94 -166 -172 -267 0
-94 -166 -188 -225 0
-94 -166 -189 -222 0
-94 -166 -190 -221 0
-94 -166 -193 -218 0
-94 -166 -194 -217 0
-95 -127 -213 -282 0
-95 -127 -214 -281 0
-95 -127 -215 -280 0
-95 -127 -222 -266 0
-95 -127 -223 -265 0
-95 -127 -224 -264 0
-95 -127 -228 -260 0
-95 -127 -229 -259 0
-95 -127 -230 -258 0
-95 -128 -212 -282 0
-95 -128 -223 -263 0
-95 -128 -224 -262 0
-95 -128 -226 -260 0
-95 -128 -227 -259 0
-95 -129 -212 -281 0
-95 -129 -221 -265 0
-95 -129 -222 -263 0
-95 -129 -224 -261 0
-95 -129 -225 -260 0
-95 -129 -227 -258 0
-95 -129 -229 -257 0
-95 -130 -212 -280 0
-95 -130 -221 -264 0
-95 -130 -222 -262 0
-95 -130 -223 -261 0
-95 -130 -225 -259 0
-95 -130 -226 -258 0
-95 -130 -228 -257 0
-95 -132 -198 -281 0
-95 -132 -199 -280 0
-95 -132 -201 -278 0
-95 -132 -202 -277 0
-95 -134 -197 -266 0
-95 -134 -200 -263 0
-95 -134 -201 -262 0
-95 -134 -202 -261 0
-95 -147 -197 -230 0
-95 -147 -199 -228 0
-95 -147 -200 -227 0
-95 -147 -201 -226 0
-95 -147 -202 -225 0
-95 -161 -168 -282 0
-95 -161 -170 -266 0
-95 -161 -173 -260 0
-95 -161 -174 -259 0
-95 -161 -183 -230 0
-95 -161 -186 -224 0
-95 -161 -187 -223 0
-95 -161 -195 -215 0
-95 -161 -196 -214 0
-95 -162 -168 -281 0
-95 -162 -170 -265 0
-95 -162 -172 -260 0
-95 -162 -174 -258 0
-95 -162 -183 -229 0
-95 -162 -185 -224 0
-95 -162 -187 -222 0
-95 -162 -194 -215 0
-95 -162 -196 -213 0
-95 -163 -168 -280 0
-95 -163 -170 -264 0
-95 -163 -172 -259 0
-95 -163 -173 -258 0
-95 -163 -183 -228 0
-95 -163 -185 -223 0
-95 -163 -186 -222 0
-95 -163 -194 -214 0
-95 -163 -195 -213 0
-95 -164 -168 -279 0
-95 -164 -170 -263 0
-95 -164 -171 -260 0
-95 -164 -174 -257 0
-95 -164 -183 -227 0
-95 -164 -184 -224 0
-95 -164 -187 -221 0
-95 -164 -193 -215 0
-95 -164 -196 -212 0
-95 -165 -168 -278 0
-95 -165 -170 -262 0
-95 -165 -171 -259 0
-95 -165 -173 -257 0
-95 -165 -183 -226 0
-95 -165 -184 -223 0
-95 -165 -186 -221 0
-95 -165 -193 -214 0
-95 -165 -195 -212 0
-95 -166 -168 -277 0
-95 -166 -170 -261 0
-95 -166 -171 -258 0
-95 -166 -172 -257 0
-95 -166 -183 -225 0
-95 -166 -184 -222 0
-95 -166 -185 -221 0
-95 -166 -193 -213 0
-95 -166 -194 -212 0
-96 -127 -213 -276 0
-96 -127 -214 -275 0
-96 -127 -215 -274 0
-96 -127 -218 -266 0
-96 -127 -219 -265 0
-96 -127 -220 -264 0
-96 -127 -228 -256 0
-96 -127 -229 -255 0
-96 -127 -230 -254 0
-96 -128 -212 -276 0
-96 -128 -214 -273 0
-96 -128 -215 -272 0
-96 -128 -219 -263 0
-96 -128 -220 -262 0
-96 -128 -226 -256 0
-96 -128 -227 -255 0
-96 -129 -212 -275 0
-96 -129 -213 -273 0
-96 -129 -215 -271 0
-96 -129 -217 -265 0
-96 -129 -218 -263 0
-96 -129 -220 -261 0
-96 -129 -225 -256 0
-96 -129 -227 -254 0
-96 -129 -229 -253 0
-96 -130 -212 -274 0
-96 -130 -213 -272 0
-96 -130 -217 -264 0
-96 -130 -218 -262 0
-96 -130 -219 -261 0
-96 -130 -225 -255 0
-96 -130 -226 -254 0
-96 -130 -228 -253 0
-96 -132 -198 -275 0
-96 -132 -199 -274 0
-96 -132 -200 -273 0
-96 -132 -201 -272 0
-96 -132 -202 -271 0
-96 -133 -198 -265 0
-96 -133 -200 -263 0
-96 -146 -199 -228 0
-96 -146 -200 -227 0
-96 -146 -201 -226 0
-96 -146 -202 -225 0
-96 -161 -168 -276 0
-96 -161 -169 -266 0
-96 -161 -173 -256 0
-96 -161 -174 -255 0
-96 -161 -182 -230 0
-96 -161 -186 -220 0
-96 -161 -187 -219 0
-96 -162 -168 -275 0
-96 -162 -169 -265 0
-96 -162 -172 -256 0
-96 -162 -174 -254 0
-96 -162 -182 -229 0
-96 -162 -185 -220 0
-96 -162 -187 -218 0
-96 -162 -190 -215 0
-96 -162 -192 -213 0
-96 -163 -168 -274 0
-96 -163 -169 -264 0
-96 -163 -172 -255 0
-96 -163 -173 -254 0
-96 -163 -182 -228 0
-96 -163 -185 -219 0
-96 -163 -186 -218 0
-96 -163 -190 -214 0
-96 -163 -191 -213 0
-96 -164 -168 -273 0
-96 -164 -169 -263 0
-96 -164 -171 -256 0
-96 -164 -174 -253 0
-96 -164 -182 -227 0
-96 -164 -184 -220 0
-96 -164 -187 -217 0
-96 -164 -189 -215 0
-96 -164 -192 -212 0
-96 -165 -168 -272 0
-96 -165 -169 -262 0
-96 -165 -171 -255 0
-96 -165 -173 -253 0
-96 -165 -182 -226 0
-96 -165 -184 -219 0
-96 -165 -186 -217 0
-96 -165 -189 -214 0
-96 -165 -191 -212 0
-96 -166 -168 -271 0
-96 -166 -169 -261 0
-96 -166 -171 -254 0
-96 -166 -172 -253 0
-96 -166 -182 -225 0
-96 -166 -184 -218 0
-96 -166 -185 -217 0
-96 -166 -189 -213 0
-96 -166 -190 -212 0
-101 -127 -207 -282 0
-101 -127 -208 -281 0
-101 -127 -209 -280 0
-101 -127 -222 -251 0
-101 -127 -228 -245 0
-101 -127 -229 -244 0
-101 -127 -230 -243 0
-101 -128 -206 -282 0
-101 -128 -208 -279 0
-101 -128 -221 -251 0
-101 -128 -223 -248 0
-101 -128 -224 -247 0
-101 -128 -226 -245 0
-101 -129 -206 -281 0
-101 -129 -207 -279 0
-101 -129 -209 -277 0
-101 -129 -222 -248 0
-101 -129 -224 -246 0
-101 -129 -225 -245 0
-101 -130 -206 -280 0
-101 -130 -221 -249 0
-101 -130 -223 -246 0
-101 -130 -225 -244 0
-101 -130 -226 -243 0
-101 -130 -228 -242 0
-101 -131 -198 -281 0
-101 -131 -199 -280 0
-101 -131 -200 -279 0
-101 -131 -201 -278 0
-101 -131 -202 -277 0
-101 -134 -197 -251 0
-101 -134 -198 -250 0
-101 -134 -199 -249 0
-101 -134 -200 -248 0
-101 -134 -201 -247 0
-101 -141 -197 -230 0
-101 -141 -198 -229 0
-101 -141 -199 -228 0
-101 -141 -202 -225 0
-101 -161 -167 -282 0
-101 -161 -170 -251 0
-101 -161 -173 -245 0
-101 -161 -177 -230 0
-101 -161 -180 -224 0
-101 -161 -181 -223 0
-101 -161 -195 -209 0
-101 -161 -196 -208 0
-101 -162 -167 -281 0
-101 -162 -170 -250 0
-101 -162 -172 -245 0
-101 -162 -177 -229 0
-101 -162 -179 -224 0
-101 -162 -181 -222 0
-101 -162 -194 -209 0
-101 -162 -196 -207 0
-101 -163 -167 -280 0
-101 -163 -170 -249 0
-101 -163 -172 -244 0
-101 -163 -173 -243 0
-101 -163 -177 -228 0
-101 -163 -179 -223 0
-101 -163 -180 -222 0
-101 -163 -194 -208 0
-101 -163 -195 -207 0
-101 -164 -167 -279 0
-101 -164 -170 -248 0
-101 -164 -171 -245 0
-101 -164 -174 -242 0
-101 -164 -177 -227 0
-101 -164 -178 -224 0
-101 -164 -181 -221 0
-101 -164 -193 -209 0
-101 -164 -196 -206 0
-101 -165 -167 -278 0
-101 -165 -170 -247 0
-101 -165 -171 -244 0
-101 -165 -173 -242 0
-101 -165 -177 -226 0
-101 -165 -178 -223 0
-101 -165 -180 -221 0
-101 -165 -193 -208 0
-101 -165 -195 -206 0
-101 -166 -167 -277 0
-101 -166 -170 -246 0
-101 -166 -171 -243 0
-101 -166 -172 -242 0
-101 -166 -177 -225 0
-101 -166 -178 -222 0
-101 -166 -179 -221 0
-101 -166 -193 -207 0
-101 -166 -194 -206 0
-102 -127 -207 -276 0
-102 -127 -208 -275 0
-102 -127 -209 -274 0
-102 -127 -219 -250 0
-102 -127 -229 -240 0
-102 -127 -230 -239 0
-102 -128 -208 -273 0
-102 -128 -209 -272 0
-102 -128 -217 -251 0
-102 -128 -219 -248 0
-102 -128 -226 -241 0
-102 -128 -227 -240 0
-102 -128 -230 -238 0
-102 -129 -207 -273 0
-102 -129 -217 -250 0
-102 -129 -218 -248 0
-102 -129 -220 -246 0
-102 -129 -225 -241 0
-102 -129 -227 -239 0
-102 -129 -229 -238 0
-102 -130 -206 -274 0
-102 -130 -207 -272 0
-102 -130 -217 -249 0
-102 -130 -218 -247 0
-102 -130 -219 -246 0
-102 -130 -226 -239 0
-102 -130 -228 -238 0
-102 -131 -200 -273 0
-102 -131 -201 -272 0
-102 -131 -202 -271 0
-102 -133 -198 -250 0
-102 -133 -199 -249 0
-102 -133 -200 -248 0
-102 -140 -199 -228 0
-102 -140 -200 -227 0
-102 -140 -201 -226 0
-102 -140 -202 -225 0
-102 -161 -167 -276 0
-102 -161 -169 -251 0
-102 -161 -173 -241 0
-102 -161 -174 -240 0
-102 -161 -176 -230 0
-102 -161 -180 -220 0
-102 -161 -181 -219 0
-102 -161 -191 -209 0
-102 -161 -192 -208 0
-102 -162 -167 -275 0
-102 -162 -169 -250 0
-102 -162 -172 -241 0
-102 -162 -174 -239 0
-102 -162 -176 -229 0
-102 -162 -179 -220 0
-102 -162 -181 -218 0
-102 -162 -190 -209 0
-102 -162 -192 -207 0
-102 -163 -167 -274 0
-102 -163 -169 -249 0
-102 -163 -172 -240 0
-102 -163 -173 -239 0
-102 -163 -176 -228 0
-102 -163 -179 -219 0
-102 -163 -180 -218 0
-102 -163 -190 -208 0
-102 -163 -191 -207 0
-102 -164 -167 -273 0
-102 -164 -169 -248 0
-102 -164 -171 -241 0
-102 -164 -174 -238 0
-102 -164 -176 -227 0
-102 -164 -178 -220 0
-102 -164 -181 -217 0
-102 -164 -189 -209 0
-102 -164 -192 -206 0
-102 -165 -167 -272 0
-102 -165 -169 -247 0
-102 -165 -171 -240 0
-102 -165 -173 -238 0
-102 -165 -176 -226 0
-102 -165 -178 -219 0
-102 -165 -180 -217 0
-102 -165 -189 -208 0
-102 -165 -191 -206 0
-102 -166 -167 -271 0
-102 -166 -169 -246 0
-102 -166 -171 -239 0
-102 -166 -172 -238 0
-102 -166 -176 -225 0
-102 -166 -178 -218 0
-102 -166 -179 -217 0
-102 -166 -189 -207 0
-102 -166 -190 -206 0
-107 -127 -207 -266 0
-107 -127 -209 -264 0
-107 -127 -215 -249 0
-107 -127 -228 -236 0
-107 -127 -229 -235 0
-107 -127 -230 -234 0
-107 -128 -206 -266 0
-107 -128 -208 -263 0
-107 -128 -212 -251 0
-107 -128 -214 -248 0
-107 -128 -215 -247 0
-107 -128 -226 -236 0
-107 -128 -227 -235 0
-107 -128 -230 -233 0
-107 -129 -206 -265 0
-107 -129 -209 -261 0
-107 -129 -212 -250 0
-107 -129 -213 -248 0
-107 -129 -225 -236 0
-107 -129 -227 -234 0
-107 -129 -229 -233 0
-107 -130 -206 -264 0
-107 -130 -208 -261 0
-107 -130 -212 -249 0
-107 -130 -214 -246 0
-107 -130 -226 -234 0
-107 -130 -228 -233 0
-107 -131 -197 -266 0
-107 -131 -201 -262 0
-107 -131 -202 -261 0
-107 -132 -197 -251 0
-107 -132 -198 -250 0
-107 -132 -199 -249 0
-107 -132 -200 -248 0
-107 -132 -201 -247 0
-107 -139 -197 -230 0
-107 -139 -198 -229 0
-107 -139 -200 -227 0
-107 -139 -202 -225 0
-107 -161 -167 -266 0
-107 -161 -168 -251 0
-107 -161 -173 -236 0
-107 -161 -175 -230 0
-107 -161 -180 -215 0
-107 -161 -181 -214 0
-107 -161 -186 -209 0
-107 -162 -167 -265 0
-107 -162 -168 -250 0
-107 -162 -172 -236 0
-107 -162 -174 -234 0
-107 -162 -175 -229 0
-107 -162 -179 -215 0
-107 -162 -181 -213 0
-107 -162 -185 -209 0
-107 -162 -187 -207 0
-107 -163 -167 -264 0
-107 -163 -168 -249 0
-107 -163 -172 -235 0
-107 -163 -173 -234 0
-107 -163 -175 -228 0
-107 -163 -179 -214 0
-107 -163 -180 -213 0
-107 -163 -185 -208 0
-107 -163 -186 -207 0
-107 -164 -167 -263 0
-107 -164 -168 -248 0
-107 -164 -171 -236 0
-107 -164 -174 -233 0
-107 -164 -175 -227 0
-107 -164 -178 -215 0
-107 -164 -181 -212 0
-107 -164 -184 -209 0
-107 -164 -187 -206 0
-107 -165 -167 -262 0
-107 -165 -168 -247 0
-107 -165 -171 -235 0
-107 -165 -173 -233 0
-107 -165 -175 -226 0
-107 -165 -178 -214 0
-107 -165 -180 -212 0
-107 -165 -184 -208 0
-107 -165 -186 -206 0
-107 -166 -167 -261 0
-107 -166 -168 -246 0
-107 -166 -171 -234 0
-107 -166 -172 -233 0
-107 -166 -175 -225 0
-107 -166 -178 -213 0
-107 -166 -179 -212 0
-107 -166 -184 -207 0
-107 -166 -185 -206 0
-116 -131 -182 -282 0
-116 -131 -183 -276 0
-116 -131 -186 -270 0
-116 -131 -187 -269 0
-116 -131 -188 -266 0
-116 -131 -191 -260 0
-116 -131 -192 -259 0
-116 -131 -195 -256 0
-116 -131 -196 -255 0
-116 -132 -176 -282 0
-116 -132 -177 -276 0
-116 -132 -180 -270 0
-116 -132 -181 -269 0
-116 -132 -188 -251 0
-116 -132 -191 -245 0
-116 -132 -192 -244 0
-116 -132 -195 -241 0
-116 -132 -196 -240 0
-116 -133 -175 -282 0
-116 -133 -177 -266 0
-116 -133 -180 -260 0
-116 -133 -181 -259 0
-116 -133 -183 -251 0
-116 -133 -186 -245 0
-116 -133 -187 -244 0
-116 -133 -195 -236 0
-116 -133 -196 -235 0
-116 -134 -175 -276 0
-116 -134 -176 -266 0
-116 -134 -180 -256 0
-116 -134 -181 -255 0
-116 -134 -182 -251 0
-116 -134 -186 -241 0
-116 -134 -187 -240 0
-116 -134 -191 -236 0
-116 -134 -192 -235 0
-116 -139 -169 -282 0
-116 -139 -170 -276 0
-116 -139 -173 -270 0
-116 -139 -174 -269 0
-116 -139 -188 -230 0
-116 -139 -191 -224 0
-116 -139 -192 -223 0
-116 -139 -195 -220 0
-116 -139 -196 -219 0
-116 -140 -168 -282 0
-116 -140 -170 -266 0
-116 -140 -173 -260 0
-116 -140 -174 -259 0
-116 -140 -183 -230 0
-116 -140 -186 -224 0
-116 -140 -187 -223 0
-116 -140 -195 -215 0
-116 -140 -196 -214 0
-116 -141 -168 -276 0
-116 -141 -169 -266 0
-116 -141 -173 -256 0
-116 -141 -174 -255 0
-116 -141 -182 -230 0
-116 -141 -186 -220 0
-116 -141 -187 -219 0
-116 -141 -191 -215 0
-116 -141 -192 -214 0
-116 -146 -167 -282 0
-116 -146 -170 -251 0
-116 -146 -173 -245 0
-116 -146 -174 -244 0
-116 -146 -177 -230 0
-116 -146 -180 -224 0
-116 -146 -181 -223 0
-116 -146 -195 -209 0
-116 -146 -196 -208 0
-116 -147 -167 -276 0
-116 -147 -169 -251 0
-116 -147 -173 -241 0
-116 -147 -174 -240 0
-116 -147 -176 -230 0
-116 -147 -180 -220 0
-116 -147 -181 -219 0
-116 -147 -191 -209 0
-116 -147 -192 -208 0
-116 -152 -167 -266 0
-116 -152 -168 -251 0
-116 -152 -173 -236 0
-116 -152 -174 -235 0
-116 -152 -175 -230 0
-116 -152 -180 -215 0
-116 -152 -181 -214 0
-116 -152 -186 -209 0
-116 -152 -187 -208 0
-117 -131 -182 -281 0
-117 -131 -183 -275 0
-117 -131 -185 -270 0
-117 -131 -187 -268 0
-117 -131 -188 -265 0
-117 -131 -190 -260 0
-117 -131 -192 -258 0
-117 -131 -194 -256 0
-117 -131 -196 -254 0
-117 -132 -176 -281 0
-117 -132 -177 -275 0
-117 -132 -179 -270 0
-117 -132 -181 -268 0
-117 -132 -188 -250 0
-117 -132 -190 -245 0
-117 -132 -192 -243 0
-117 -132 -194 -241 0
-117 -132 -196 -239 0
-117 -133 -175 -281 0
-117 -133 -177 -265 0
-117 -133 -179 -260 0
-117 -133 -181 -258 0
-117 -133 -183 -250 0
-117 -133 -185 -245 0
-117 -133 -187 -243 0
-117 -133 -194 -236 0
-117 -133 -196 -234 0
-117 -134 -175 -275 0
-117 -134 -176 -265 0
-117 -134 -179 -256 0
-117 -134 -181 -254 0
-117 -134 -182 -250 0
-117 -134 -185 -241 0
-117 -134 -187 -239 0
-117 -134 -190 -236 0
-117 -134 -192 -234 0
-117 -139 -169 -281 0
-117 -139 -170 -275 0
-117 -139 -172 -270 0
-117 -139 -174 -268 0
-117 -139 -188 -229 0
-117 -139 -190 -224 0
-117 -139 -192 -222 0
-117 -139 -194 -220 0
-117 -139 -196 -218 0
-117 -140 -168 -281 0
-117 -140 -170 -265 0
-117 -140 -172 -260 0
-117 -140 -174 -258 0
-117 -140 -183 -229 0
-117 -140 -185 -224 0
-117 -140 -187 -222 0
-117 -140 -194 -215 0
-117 -140 -196 -213 0
-117 -141 -168 -275 0
-117 -141 -169 -265 0
-117 -141 -172 -256 0
-117 -141 -174 -254 0
-117 -141 -182 -229 0
-117 -141 -185 -220 0
-117 -141 -187 -218 0
-117 -141 -190 -215 0
-117 -141 -192 -213 0
-117 -146 -167 -281 0
-117 -146 -170 -250 0
-117 -146 -172 -245 0
-117 -146 -174 -243 0
-117 -146 -177 -229 0
-117 -146 -179 -224 0
-117 -146 -181 -222 0
-117 -146 -194 -209 0
-117 -146 -196 -207 0
-117 -147 -167 -275 0
-117 -147 -169 -250 0
-117 -147 -172 -241 0
-117 -147 -174 -239 0
-117 -147 -176 -229 0
-117 -147 -179 -220 0
-117 -147 -181 -218 0
-117 -147 -190 -209 0
-117 -147 -192 -207 0
-117 -152 -167 -265 0
-117 -152 -168 -250 0
-117 -152 -172 -236 0
-117 -152 -174 -234 0
-117 -152 -175 -229 0
-117 -152 -179 -215 0
-117 -152 -181 -213 0
-117 -152 -185 -209 0
-117 -152 -187 -207 0
-118 -131 -182 -280 0
-118 -131 -183 -274 0
-118 -131 -185 -269 0
-118 -131 -186 -268 0
-118 -131 -188 -264 0
-118 -131 -190 -259 0
-118 -131 -191 -258 0
-118 -131 -194 -255 0
-118 -131 -195 -254 0
-118 -132 -176 -280 0
-118 -132 -177 -274 0
-118 -132 -179 -269 0
-118 -132 -180 -268 0
-118 -132 -188 -249 0
-118 -132 -190 -244 0
-118 -132 -191 -243 0
-118 -132 -194 -240 0
-118 -132 -195 -239 0
-118 -133 -175 -280 0
-118 -133 -177 -264 0
-118 -133 -179 -259 0
-118 -133 -180 -258 0
-118 -133 -183 -249 0
-118 -133 -185 -244 0
-118 -133 -186 -243 0
-118 -133 -194 -235 0
-118 -133 -195 -234 0
-118 -134 -175 -274 0
-118 -134 -176 -264 0
-118 -134 -179 -255 0
-118 -134 -180 -254 0
-118 -134 -182 -249 0
-118 -134 -185 -240 0
-118 -134 -186 -239 0
-118 -134 -190 -235 0
-118 -134 -191 -234 0
-118 -139 -169 -280 0
-118 -139 -170 -274 0
-118 -139 -172 -269 0
-118 -139 -173 -268 0
-118 -139 -188 -228 0
-118 -139 -190 -223 0
-118 -139 -191 -222 0
-118 -139 -194 -219 0
-118 -139 -195 -218 0
-118 -140 -168 -280 0
-118 -140 -170 -264 0
-118 -140 -172 -259 0
-118 -140 -173 -258 0
-118 -140 -183 -228 0
-118 -140 -185 -223 0
-118 -140 -186 -222 0
-118 -140 -194 -214 0
-118 -140 -195 -213 0
-118 -141 -168 -274 0
-118 -141 -169 -264 0
-118 -141 -172 -255 0
-118 -141 -173 -254 0
-118 -141 -182 -228 0
-118 -141 -185 -219 0
-118 -141 -186 -218 0
-118 -141 -190 -214 0
-118 -141 -191 -213 0
-118 -146 -167 -280 0
-118 -146 -170 -249 0
-118 -146 -172 -244 0
-118 -146 -173 -243 0
-118 -146 -177 -228 0
-118 -146 -179 -223 0
-118 -146 -180 -222 0
-118 -146 -194 -208 0
-118 -146 -195 -207 0
-118 -147 -167 -274 0
-118 -147 -169 -249 0
-118 -147 -172 -240 0
-118 -147 -173 -239 0
-118 -147 -176 -228 0
-118 -147 -179 -219 0
-118 -147 -180 -218 0
-118 -147 -190 -208 0
-118 -147 -191 -207 0
-118 -152 -167 -264 0
-118 -152 -168 -249 0
-118 -152 -172 -235 0
-118 -152 -173 -234 0
-118 -152 -175 -228 0
-118 -152 -179 -214 0
-118 -152 -180 -213 0
-118 -152 -185 -208 0
-118 -152 -186 -207 0
-119 -131 -182 -279 0
-119 -131 -183 -273 0
-119 -131 -184 -270 0
-119 -131 -187 -267 0
-119 -131 -188 -263 0
-119 -131 -189 -260 0
-119 -131 -192 -257 0
-119 -131 -193 -256 0
-119 -131 -196 -253 0
-119 -132 -176 -279 0
-119 -132 -177 -273 0
-119 -132 -178 -270 0
-119 -132 -181 -267 0
-119 -132 -188 -248 0
-119 -132 -189 -245 0
-119 -132 -192 -242 0
-119 -132 -193 -241 0
-119 -132 -196 -238 0
-119 -133 -175 -279 0
-119 -133 -177 -263 0
-119 -133 -178 -260 0
-119 -133 -181 -257 0
-119 -133 -183 -248 0
-119 -133 -184 -245 0
-119 -133 -187 -242 0
-119 -133 -193 -236 0
-119 -133 -196 -233 0
-119 -134 -175 -273 0
-119 -134 -176 -263 0
-119 -134 -178 -256 0
-119 -134 -181 -253 0
-119 -134 -182 -248 0
-119 -134 -184 -241 0
-119 -134 -187 -238 0
-119 -134 -189 -236 0
-119 -134 -192 -233 0
-119 -139 -169 -279 0
-119 -139 -170 -273 0
-119 -139 -171 -270 0
-119 -139 -174 -267 0
-119 -139 -188 -227 0
-119 -139 -189 -224 0
-119 -139 -192 -221 0
-119 -139 -193 -220 0
-119 -139 -196 -217 0
-119 -140 -168 -279 0
-119 -140 -170 -263 0
-119 -140 -171 -260 0
-119 -140 -174 -257 0
-119 -140 -183 -227 0
-119 -140 -184 -224 0
-119 -140 -187 -221 0
-119 -140 -193 -215 0
-119 -140 -196 -212 0
-119 -141 -168 -273 0
-119 -141 -169 -263 0
-119 -141 -171 -256 0
-119 -141 -174 -253 0
-119 -141 -182 -227 0
-119 -141 -184 -220 0
-119 -141 -187 -217 0
-119 -141 -189 -215 0
-119 -141 -192 -212 0
-119 -146 -167 -279 0
-119 -146 -170 -248 0
-119 -146 -171 -245 0
-119 -146 -174 -242 0
-119 -146 -177 -227 0
-119 -146 -178 -224 0
-119 -146 -181 -221 0
-119 -146 -193 -209 0
-119 -146 -196 -206 0
-119 -147 -167 -273 0
-119 -147 -169 -248 0
-119 -147 -171 -241 0
-119 -147 -174 -238 0
-119 -147 -176 -227 0
-119 -147 -178 -220 0
-119 -147 -181 -217 0
-119 -147 -189 -209 0
-119 -147 -192 -206 0
-119 -152 -167 -263 0
-119 -152 -168 -248 0
-119 -152 -171 -236 0
-119 -152 -174 -233 0
-119 -152 -175 -227 0
-119 -152 -178 -215 0
-119 -152 -181 -212 0
-119 -152 -184 -209 0
-119 -152 -187 -206 0
-119 -163 -177 -210 0
-120 -131 -182 -278 0
-120 -131 -183 -272 0
-120 -131 -184 -269 0
-120 -131 -186 -267 0
-120 -131 -188 -262 0
-120 -131 -189 -259 0
-120 -131 -191 -257 0
-120 -131 -193 -255 0
-120 -131 -195 -253 0
-120 -132 -176 -278 0
-120 -132 -177 -272 0
-120 -132 -178 -269 0
-120 -132 -180 -267 0
-120 -132 -188 -247 0
-120 -132 -189 -244 0
-120 -132 -191 -242 0
-120 -132 -193 -240 0
-120 -132 -195 -238 0
-120 -133 -175 -278 0
-120 -133 -177 -262 0
-120 -133 -178 -259 0
-120 -133 -180 -257 0
-120 -133 -183 -247 0
-120 -133 -184 -244 0
-120 -133 -186 -242 0
-120 -133 -193 -235 0
-120 -133 -195 -233 0
-120 -134 -175 -272 0
-120 -134 -176 -262 0
-120 -134 -178 -255 0
-120 -134 -180 -253 0
-120 -134 -182 -247 0
-120 -134 -184 -240 0
-120 -134 -186 -238 0
-120 -134 -189 -235 0
-120 -134 -191 -233 0
-120 -139 -169 -278 0
-120 -139 -170 -272 0
-120 -139 -171 -269 0
-120 -139 -173 -267 0
-120 -139 -188 -226 0
-120 -139 -189 -223 0
-120 -139 -191 -221 0
-120 -139 -193 -219 0
-120 -139 -195 -217 0
-120 -140 -168 -278 0
-120 -140 -170 -262 0
-120 -140 -171 -259 0
-120 -140 -173 -257 0
-120 -140 -183 -226 0
-120 -140 -184 -223 0
-120 -140 -186 -221 0
-120 -140 -193 -214 0
-120 -140 -195 -212 0
-120 -141 -168 -272 0
-120 -141 -169 -262 0
-120 -141 -171 -255 0
-120 -141 -173 -253 0
-120 -141 -182 -226 0
-120 -141 -184 -219 0
-120 -141 -186 -217 0
-120 -141 -189 -214 0
-120 -141 -191 -212 0
-120 -146 -167 -278 0
-120 -146 -170 -247 0
-120 -146 -171 -244 0
-120 -146 -173 -242 0
-120 -146 -177 -226 0
-120 -146 -178 -223 0
-120 -146 -180 -221 0
-120 -146 -193 -208 0
-120 -146 -195 -206 0
-120 -147 -167 -272 0
-120 -147 -169 -247 0
-120 -147 -171 -240 0
-120 -147 -173 -238 0
-120 -147 -176 -226 0
-120 -147 -178 -219 0
-120 -147 -180 -217 0
-120 -147 -189 -208 0
-120 -147 -191 -206 0
-120 -152 -167 -262 0
-120 -152 -168 -247 0
-120 -152 -171 -235 0
-120 -152 -173 -233 0
-120 -152 -175 -226 0
-120 -152 -178 -214 0
-120 -152 -180 -212 0
-120 -152 -184 -208 0
-120 -152 -186 -206 0
-121 -131 -182 -277 0
-121 -131 -183 -271 0
-121 -131 -184 -268 0
-121 -131 -185 -267 0
-121 -131 -188 -261 0
-121 -131 -189 -258 0
-121 -131 -190 -257 0
-121 -131 -193 -254 0
-121 -131 -194 -253 0
-121 -132 -176 -277 0
-121 -132 -177 -271 0
-121 -132 -178 -268 0
-121 -132 -179 -267 0
-121 -132 -188 -246 0
-121 -132 -189 -243 0
-121 -132 -190 -242 0
-121 -132 -193 -239 0
-121 -132 -194 -238 0
-121 -133 -175 -277 0
-121 -133 -177 -261 0
-121 -133 -178 -258 0
-121 -133 -179 -257 0
-121 -133 -183 -246 0
-121 -133 -184 -243 0
-121 -133 -185 -242 0
-121 -133 -193 -234 0
-121 -133 -194 -233 0
-121 -134 -175 -271 0
-121 -134 -176 -261 0
-121 -134 -178 -254 0
-121 -134 -179 -253 0
-121 -134 -182 -246 0
-121 -134 -184 -239 0
-121 -134 -185 -238 0
-121 -134 -189 -234 0
-121 -134 -190 -233 0
-121 -139 -169 -277 0
-121 -139 -170 -271 0
-121 -139 -171 -268 0
-121 -139 -172 -267 0
-121 -139 -188 -225 0
-121 -139 -189 -222 0
-121 -139 -190 -221 0
-121 -139 -193 -218 0
-121 -139 -194 -217 0
-121 -140 -168 -277 0
-121 -140 -170 -261 0
-121 -140 -171 -258 0
-121 -140 -172 -257 0
-121 -140 -183 -225 0
-121 -140 -184 -222 0
-121 -140 -185 -221 0
-121 -140 -193 -213 0
-121 -140 -194 -212 0
-121 -141 -168 -271 0
-121 -141 -169 -261 0
-121 -141 -171 -254 0
-121 -141 -172 -253 0
-121 -141 -182 -225 0
-121 -141 -184 -218 0
-121 -141 -185 -217 0
-121 -141 -189 -213 0
-121 -141 -190 -212 0
-121 -146 -167 -277 0
-121 -146 -170 -246 0
-121 -146 -171 -243 0
-121 -146 -172 -242 0
-121 -146 -177 -225 0
-121 -146 -178 -222 0
-121 -146 -179 -221 0
-121 -146 -193 -207 0
-121 -146 -194 -206 0
-121 -147 -167 -271 0
-121 -147 -169 -246 0
-121 -147 -171 -239 0
-121 -147 -172 -238 0
-121 -147 -176 -225 0
-121 -147 -178 -218 0
-121 -147 -179 -217 0
-121 -147 -189 -207 0
-121 -147 -190 -206 0
-121 -152 -167 -261 0
-121 -152 -168 -246 0
-121 -152 -171 -234 0
-121 -152 -172 -233 0
-121 -152 -175 -225 0
-121 -152 -178 -213 0
-121 -152 -179 -212 0
-121 -152 -184 -207 0
-121 -152 -185 -206 0
1 0
2 0
3 0
4 0
5 0
6 0
7 0
-8 0
-9 0
-10 0
-11 0
12 0
-13 0
-14 0
-15 0
-16 0
-17 0
18 0
19 0
20 0
21 0
