p cnf 286 1826
-2 -3 -4 -22 -23 -31 0
-2 -3 -5 -22 -24 -32 0
-2 -3 -6 -22 -25 -33 0
-2 -3 -7 -22 -26 -34 0
-2 -4 -5 -23 -24 -39 0
-2 -4 -6 -23 -25 -40 0
-2 -4 -7 -23 -26 -41 0
-2 -5 -6 -24 -25 -46 0
-2 -5 -7 -24 -26 -47 0
-2 -6 -7 -25 -26 -52 0
-3 -4 -5 -31 -32 -39 0
-3 -4 -6 -31 -33 -40 0
-3 -4 -7 -31 -34 -41 0
-3 -5 -6 -32 -33 -46 0
-3 -5 -7 -32 -34 -47 0
-3 -6 -7 -33 -34 -52 0
-4 -5 -6 -39 -40 -46 0
-4 -5 -7 -39 -41 -47 0
-4 -6 -7 -40 -41 -52 0
-5 -6 -7 -46 -47 -52 0
8 9 10 61 62 64 0
8 9 11 61 63 65 0
8 10 11 62 63 66 0
9 10 11 64 65 66 0
13 14 15 31 32 39 0
13 14 16 31 33 40 0
13 14 17 31 34 41 0
13 14 19 31 36 43 0
13 14 20 31 37 44 0
13 14 21 31 38 45 0
13 15 16 32 33 46 0
13 15 17 32 34 47 0
13 15 19 32 36 49 0
13 15 20 32 37 50 0
13 15 21 32 38 51 0
13 16 17 33 34 52 0
13 16 19 33 36 54 0
13 16 20 33 37 55 0
13 16 21 33 38 56 0
13 17 19 34 36 58 0
13 17 20 34 37 59 0
13 17 21 34 38 60 0
13 19 20 36 37 64 0
13 19 21 36 38 65 0
13 20 21 37 38 66 0
14 15 16 39 40 46 0
14 15 17 39 41 47 0
14 15 19 39 43 49 0
14 15 20 39 44 50 0
14 15 21 39 45 51 0
14 16 17 40 41 52 0
14 16 19 40 43 54 0
14 16 20 40 44 55 0
14 16 21 40 45 56 0
14 17 19 41 43 58 0
14 17 20 41 44 59 0
14 17 21 41 45 60 0
14 19 20 43 44 64 0
14 19 21 43 45 65 0
14 20 21 44 45 66 0
15 16 17 46 47 52 0
15 16 19 46 49 54 0
15 16 20 46 50 55 0
15 16 21 46 51 56 0
15 17 19 47 49 58 0
15 17 20 47 50 59 0
15 17 21 47 51 60 0
15 19 20 49 50 64 0
15 19 21 49 51 65 0
15 20 21 50 51 66 0
16 17 19 52 54 58 0
16 17 20 52 55 59 0
16 17 21 52 56 60 0
16 19 20 54 55 64 0
16 19 21 54 56 65 0
16 20 21 55 56 66 0
17 19 20 58 59 64 0
17 19 21 58 60 65 0
17 20 21 59 60 66 0
22 23 27 31 35 42 0
22 24 27 32 35 48 0
22 25 27 33 35 53 0
22 26 27 34 35 57 0
-22 -28 -30 -36 -38 -65 0
-22 -29 -30 -37 -38 -66 0
23 26 27 41 42 57 0
-23 -27 -29 -42 -44 -62 0
-23 -27 -30 -42 -45 -63 0
-23 -28 -30 -43 -45 -65 0
-23 -29 -30 -44 -45 -66 0
24 25 27 46 48 53 0
24 26 27 47 48 57 0
-24 -26 -30 -47 -51 -60 0
-24 -27 -29 -48 -50 -62 0
-24 -28 -29 -49 -50 -64 0
-24 -28 -30 -49 -51 -65 0
-24 -29 -30 -50 -51 -66 0
25 26 27 52 53 57 0
-25 -29 -30 -55 -56 -66 0
26 27 30 57 60 63 0
-26 -28 -30 -58 -60 -65 0
-26 -29 -30 -59 -60 -66 0
-31 -33 -38 -40 -45 -56 0
-31 -35 -36 -42 -43 -61 0
-31 -35 -37 -42 -44 -62 0
-31 -35 -38 -42 -45 -63 0
-31 -36 -37 -43 -44 -64 0
-31 -36 -38 -43 -45 -65 0
-31 -37 -38 -44 -45 -66 0
-32 -35 -36 -48 -49 -61 0
-32 -35 -37 -48 -50 -62 0
-32 -36 -37 -49 -50 -64 0
-32 -36 -38 -49 -51 -65 0
-32 -37 -38 -50 -51 -66 0
-33 -34 -38 -52 -56 -60 0
-33 -35 -36 -53 -54 -61 0
-33 -35 -37 -53 -55 -62 0
-33 -35 -38 -53 -56 -63 0
-33 -36 -37 -54 -55 -64 0
-33 -36 -38 -54 -56 -65 0
-33 -37 -38 -55 -56 -66 0
-34 -35 -36 -57 -58 -61 0
-34 -35 -37 -57 -59 -62 0
-34 -35 -38 -57 -60 -63 0
-34 -36 -37 -58 -59 -64 0
-34 -36 -38 -58 -60 -65 0
-34 -37 -38 -59 -60 -66 0
-35 -37 -38 -62 -63 -66 0
-36 -37 -38 -64 -65 -66 0
-39 -40 -43 -46 -49 -54 0
-39 -41 -43 -47 -49 -58 0
-39 -42 -43 -48 -49 -61 0
-39 -42 -44 -48 -50 -62 0
-39 -42 -45 -48 -51 -63 0
-39 -43 -44 -49 -50 -64 0
-39 -43 -45 -49 -51 -65 0
-39 -44 -45 -50 -51 -66 0
-40 -42 -43 -53 -54 -61 0
-40 -42 -44 -53 -55 -62 0
-40 -42 -45 -53 -56 -63 0
-40 -43 -44 -54 -55 -64 0
-40 -43 -45 -54 -56 -65 0
-40 -44 -45 -55 -56 -66 0
-41 -42 -43 -57 -58 -61 0
-41 -42 -44 -57 -59 -62 0
-41 -42 -45 -57 -60 -63 0
-41 -43 -44 -58 -59 -64 0
-41 -43 -45 -58 -60 -65 0
-41 -44 -45 -59 -60 -66 0
-42 -43 -44 -61 -62 -64 0
-42 -43 -45 -61 -63 -65 0
-42 -44 -45 -62 -63 -66 0
-43 -44 -45 -64 -65 -66 0
-46 -48 -49 -53 -54 -61 0
-46 -48 -50 -53 -55 -62 0
-46 -48 -51 -53 -56 -63 0
-46 -49 -50 -54 -55 -64 0
-46 -49 -51 -54 -56 -65 0
-46 -50 -51 -55 -56 -66 0
-47 -48 -49 -57 -58 -61 0
-47 -48 -51 -57 -60 -63 0
-47 -49 -50 -58 -59 -64 0
-47 -49 -51 -58 -60 -65 0
-47 -50 -51 -59 -60 -66 0
-48 -49 -50 -61 -62 -64 0
-48 -49 -51 -61 -63 -65 0
-49 -50 -51 -64 -65 -66 0
-52 -53 -54 -57 -58 -61 0
-52 -53 -55 -57 -59 -62 0
-52 -54 -55 -58 -59 -64 0
-52 -54 -56 -58 -60 -65 0
-52 -55 -56 -59 -60 -66 0
-53 -54 -55 -61 -62 -64 0
-53 -54 -56 -61 -63 -65 0
-54 -55 -56 -64 -65 -66 0
-57 -58 -60 -61 -63 -65 0
-57 -59 -60 -62 -63 -66 0
-58 -59 -60 -64 -65 -66 0
67 -1 -2 -12 0
77 -2 -3 -22 0
78 -2 -4 -23 0
79 -2 -5 -24 0
80 -2 -6 -25 0
81 -2 -7 -26 0
86 -3 -4 -31 0
87 -3 -5 -32 0
88 -3 -6 -33 0
89 -3 -7 -34 0
94 -4 -5 -39 0
95 -4 -6 -40 0
96 -4 -7 -41 0
101 -5 -6 -46 0
102 -5 -7 -47 0
107 -6 -7 -52 0
116 8 9 61 0
117 8 10 62 0
118 8 11 63 0
119 9 10 64 0
120 9 11 65 0
121 10 11 66 0
127 -12 -18 -27 0
131 13 14 31 0
132 13 15 32 0
133 13 16 33 0
134 13 17 34 0
136 13 19 36 0
137 13 20 37 0
138 13 21 38 0
139 14 15 39 0
140 14 16 40 0
141 14 17 41 0
143 14 19 43 0
144 14 20 44 0
145 14 21 45 0
146 15 16 46 0
147 15 17 47 0
149 15 19 49 0
150 15 20 50 0
151 15 21 51 0
152 16 17 52 0
154 16 19 54 0
155 16 20 55 0
156 16 21 56 0
158 17 19 58 0
159 17 20 59 0
160 17 21 60 0
164 19 20 64 0
165 19 21 65 0
166 20 21 66 0
167 22 23 31 0
168 -22 -24 -32 0
168 22 24 32 0
169 22 25 33 0
170 22 26 34 0
171 -22 -27 -35 0
171 22 27 35 0
172 -22 -28 -36 0
172 22 28 36 0
173 -22 -29 -37 0
173 22 29 37 0
174 -22 -30 -38 0
174 22 30 38 0
175 23 24 39 0
176 23 25 40 0
177 -23 -26 -41 0
177 23 26 41 0
178 -23 -27 -42 0
178 23 27 42 0
179 -23 -28 -43 0
179 23 28 43 0
180 -23 -29 -44 0
180 23 29 44 0
181 -23 -30 -45 0
181 23 30 45 0
182 -24 -25 -46 0
182 24 25 46 0
183 -24 -26 -47 0
183 24 26 47 0
184 -24 -27 -48 0
184 24 27 48 0
185 -24 -28 -49 0
185 24 28 49 0
186 -24 -29 -50 0
186 24 29 50 0
187 -24 -30 -51 0
187 24 30 51 0
188 -25 -26 -52 0
188 25 26 52 0
189 -25 -27 -53 0
189 25 27 53 0
190 -25 -28 -54 0
190 25 28 54 0
191 -25 -29 -55 0
191 25 29 55 0
192 -25 -30 -56 0
192 25 30 56 0
193 -26 -27 -57 0
193 26 27 57 0
194 -26 -28 -58 0
194 26 28 58 0
195 -26 -29 -59 0
195 26 29 59 0
196 -26 -30 -60 0
196 26 30 60 0
197 -27 -28 -61 0
197 27 28 61 0
198 -27 -29 -62 0
198 27 29 62 0
199 -27 -30 -63 0
199 27 30 63 0
200 -28 -29 -64 0
200 28 29 64 0
201 -28 -30 -65 0
201 28 30 65 0
202 -29 -30 -66 0
203 -31 -32 -39 0
206 -31 -35 -42 0
206 31 35 42 0
207 -31 -36 -43 0
208 -31 -37 -44 0
209 -31 -38 -45 0
211 -32 -34 -47 0
212 -32 -35 -48 0
212 32 35 48 0
213 -32 -36 -49 0
214 -32 -37 -50 0
215 -32 -38 -51 0
217 -33 -35 -53 0
217 33 35 53 0
218 -33 -36 -54 0
219 -33 -37 -55 0
220 -33 -38 -56 0
221 -34 -35 -57 0
221 34 35 57 0
222 -34 -36 -58 0
223 -34 -37 -59 0
223 34 37 59 0
224 -34 -38 -60 0
225 -35 -36 -61 0
225 35 36 61 0
226 -35 -37 -62 0
226 35 37 62 0
227 -35 -38 -63 0
227 35 38 63 0
228 -36 -37 -64 0
229 -36 -38 -65 0
229 36 38 65 0
230 -37 -38 -66 0
230 37 38 66 0
233 -39 -42 -48 0
233 39 42 48 0
234 -39 -43 -49 0
235 -39 -44 -50 0
236 -39 -45 -51 0
236 39 45 51 0
238 -40 -42 -53 0
238 40 42 53 0
239 -40 -43 -54 0
239 40 43 54 0
240 -40 -44 -55 0
241 -40 -45 -56 0
242 -41 -42 -57 0
242 41 42 57 0
243 -41 -43 -58 0
244 -41 -44 -59 0
245 -41 -45 -60 0
246 -42 -43 -61 0
246 42 43 61 0
247 -42 -44 -62 0
247 42 44 62 0
248 -42 -45 -63 0
248 42 45 63 0
249 -43 -44 -64 0
250 -43 -45 -65 0
251 -44 -45 -66 0
251 44 45 66 0
253 -46 -48 -53 0
253 46 48 53 0
254 -46 -49 -54 0
254 46 49 54 0
255 -46 -50 -55 0
255 46 50 55 0
256 -46 -51 -56 0
257 -47 -48 -57 0
257 47 48 57 0
258 -47 -49 -58 0
259 -47 -50 -59 0
259 47 50 59 0
260 -47 -51 -60 0
260 47 51 60 0
261 -48 -49 -61 0
261 48 49 61 0
262 -48 -50 -62 0
262 48 50 62 0
263 -48 -51 -63 0
263 48 51 63 0
264 -49 -50 -64 0
265 -49 -51 -65 0
265 49 51 65 0
266 -50 -51 -66 0
266 50 51 66 0
267 -52 -53 -57 0
267 52 53 57 0
268 -52 -54 -58 0
268 52 54 58 0
269 -52 -55 -59 0
270 -52 -56 -60 0
271 -53 -54 -61 0
271 53 54 61 0
272 -53 -55 -62 0
272 53 55 62 0
273 -53 -56 -63 0
273 53 56 63 0
274 -54 -55 -64 0
275 -54 -56 -65 0
276 -55 -56 -66 0
277 -57 -58 -61 0
277 57 58 61 0
278 -57 -59 -62 0
278 57 59 62 0
279 -57 -60 -63 0
279 57 60 63 0
280 -58 -59 -64 0
281 -58 -60 -65 0
281 58 60 65 0
282 -59 -60 -66 0
282 59 60 66 0
283 -61 -62 -64 0
284 -61 -63 -65 0
285 -62 -63 -66 0
286 -64 -65 -66 0
-67 -206 -254 -282 0
-67 -206 -255 -281 0
-67 -206 -256 -280 0
-67 -206 -258 -276 0
-67 -206 -259 -275 0
-67 -206 -260 -274 0
-67 -206 -264 -270 0
-67 -206 -265 -269 0
-67 -206 -266 -268 0
-67 -207 -253 -282 0
-67 -207 -255 -279 0
-67 -207 -256 -278 0
-67 -207 -257 -276 0
-67 -207 -259 -273 0
-67 -207 -260 -272 0
-67 -207 -262 -270 0
-67 -207 -263 -269 0
-67 -207 -266 -267 0
-67 -208 -253 -281 0
-67 -208 -254 -279 0
-67 -208 -256 -277 0
-67 -208 -257 -275 0
-67 -208 -258 -273 0
-67 -208 -260 -271 0
-67 -208 -261 -270 0
-67 -208 -263 -268 0
-67 -208 -265 -267 0
-67 -209 -253 -280 0
-67 -209 -254 -278 0
-67 -209 -255 -277 0
-67 -209 -257 -274 0
-67 -209 -258 -272 0
-67 -209 -259 -271 0
-67 -209 -261 -269 0
-67 -209 -262 -268 0
-67 -209 -264 -267 0
-67 -212 -239 -282 0
-67 -212 -240 -281 0
-67 -212 -241 -280 0
-67 -212 -243 -276 0
-67 -212 -244 -275 0
-67 -212 -250 -269 0
-67 -212 -251 -268 0
-67 -213 -238 -282 0
-67 -213 -240 -279 0
-67 -213 -241 -278 0
-67 -213 -242 -276 0
-67 -213 -244 -273 0
-67 -213 -245 -272 0
-67 -213 -247 -270 0
-67 -213 -248 -269 0
-67 -213 -251 -267 0
-67 -214 -238 -281 0
-67 -214 -239 -279 0
-67 -214 -241 -277 0
-67 -214 -242 -275 0
-67 -214 -243 -273 0
-67 -214 -245 -271 0
-67 -214 -246 -270 0
-67 -214 -248 -268 0
-67 -214 -250 -267 0
-67 -215 -238 -280 0
-67 -215 -239 -278 0
-67 -215 -240 -277 0
-67 -215 -242 -274 0
-67 -215 -243 -272 0
-67 -215 -244 -271 0
-67 -215 -246 -269 0
-67 -215 -247 -268 0
-67 -215 -249 -267 0
-67 -217 -234 -282 0
-67 -217 -236 -280 0
-67 -217 -243 -266 0
-67 -217 -244 -265 0
-67 -217 -245 -264 0
-67 -217 -249 -260 0
-67 -217 -250 -259 0
-67 -217 -251 -258 0
-67 -218 -233 -282 0
-67 -218 -235 -279 0
-67 -218 -236 -278 0
-67 -218 -242 -266 0
-67 -218 -244 -263 0
-67 -218 -245 -262 0
-67 -218 -247 -260 0
-67 -218 -248 -259 0
-67 -218 -251 -257 0
-67 -219 -233 -281 0
-67 -219 -234 -279 0
-67 -219 -236 -277 0
-67 -219 -242 -265 0
-67 -219 -243 -263 0
-67 -219 -245 -261 0
-67 -219 -246 -260 0
-67 -219 -248 -258 0
-67 -219 -250 -257 0
-67 -220 -233 -280 0
-67 -220 -234 -278 0
-67 -220 -235 -277 0
-67 -220 -242 -264 0
-67 -220 -243 -262 0
-67 -220 -244 -261 0
-67 -220 -246 -259 0
-67 -220 -247 -258 0
-67 -220 -249 -257 0
-67 -221 -234 -276 0
-67 -221 -235 -275 0
-67 -221 -236 -274 0
-67 -221 -239 -266 0
-67 -221 -241 -264 0
-67 -221 -249 -256 0
-67 -221 -250 -255 0
-67 -221 -251 -254 0
-67 -222 -233 -276 0
-67 -222 -235 -273 0
-67 -222 -236 -272 0
-67 -222 -238 -266 0
-67 -222 -240 -263 0
-67 -222 -241 -262 0
-67 -222 -247 -256 0
-67 -222 -248 -255 0
-67 -222 -251 -253 0
-67 -223 -233 -275 0
-67 -223 -234 -273 0
-67 -223 -236 -271 0
-67 -223 -239 -263 0
-67 -223 -241 -261 0
-67 -223 -246 -256 0
-67 -223 -248 -254 0
-67 -224 -233 -274 0
-67 -224 -234 -272 0
-67 -224 -235 -271 0
-67 -224 -238 -264 0
-67 -224 -239 -262 0
-67 -224 -240 -261 0
-67 -224 -246 -255 0
-67 -224 -247 -254 0
-67 -224 -249 -253 0
-67 -225 -235 -270 0
-67 -225 -236 -269 0
-67 -225 -240 -260 0
-67 -225 -241 -259 0
-67 -225 -244 -256 0
-67 -225 -245 -255 0
-67 -226 -234 -270 0
-67 -226 -236 -268 0
-67 -226 -239 -260 0
-67 -226 -241 -258 0
-67 -226 -243 -256 0
-67 -226 -245 -254 0
-67 -227 -234 -269 0
-67 -227 -235 -268 0
-67 -227 -239 -259 0
-67 -227 -240 -258 0
-67 -227 -243 -255 0
-67 -227 -244 -254 0
-67 -228 -233 -270 0
-67 -228 -236 -267 0
-67 -228 -238 -260 0
-67 -228 -241 -257 0
-67 -228 -242 -256 0
-67 -228 -245 -253 0
-67 -229 -233 -269 0
-67 -229 -235 -267 0
-67 -229 -238 -259 0
-67 -229 -240 -257 0
-67 -229 -242 -255 0
-67 -229 -244 -253 0
-67 -230 -233 -268 0
-67 -230 -234 -267 0
-67 -230 -238 -258 0
-67 -230 -239 -257 0
-67 -230 -242 -254 0
-67 -230 -243 -253 0
-77 -139 -267 -286 0
-77 -139 -270 -283 0
-77 -139 -271 -282 0
-77 -140 -257 -286 0
-77 -146 -248 -280 0
-77 -146 -249 -279 0
-77 -146 -251 -277 0
-77 -147 -238 -286 0
-77 -147 -239 -285 0
-77 -147 -240 -284 0
-77 -147 -246 -276 0
-77 -147 -248 -274 0
-77 -147 -251 -271 0
-77 -149 -245 -272 0
-77 -150 -245 -271 0
-77 -150 -248 -268 0
-77 -151 -243 -272 0
-77 -152 -233 -286 0
-77 -152 -248 -264 0
-77 -152 -249 -263 0
-77 -152 -251 -261 0
-77 -154 -236 -278 0
-77 -154 -251 -257 0
-77 -156 -247 -258 0
-77 -158 -247 -256 0
-77 -158 -251 -253 0
-77 -159 -248 -254 0
-77 -164 -233 -270 0
-77 -164 -236 -267 0
-77 -164 -238 -260 0
-77 -164 -242 -256 0
-77 -165 -233 -269 0
-77 -165 -235 -267 0
-77 -165 -240 -257 0
-77 -165 -244 -253 0
-77 -166 -234 -267 0
-77 -166 -238 -258 0
-77 -166 -239 -257 0
-77 -166 -242 -254 0
-77 -166 -243 -253 0
-78 -132 -268 -285 0
-78 -132 -269 -284 0
-78 -132 -270 -283 0
-78 -132 -271 -282 0
-78 -132 -272 -281 0
-78 -132 -273 -280 0
-78 -132 -274 -279 0
-78 -132 -275 -278 0
-78 -132 -276 -277 0
-78 -133 -258 -285 0
-78 -133 -261 -282 0
-78 -133 -262 -281 0
-78 -133 -263 -280 0
-78 -133 -264 -279 0
-78 -133 -265 -278 0
-78 -133 -266 -277 0
-78 -134 -253 -286 0
-78 -134 -254 -285 0
-78 -134 -261 -276 0
-78 -134 -262 -275 0
-78 -134 -263 -274 0
-78 -134 -264 -273 0
-78 -134 -265 -272 0
-78 -134 -266 -271 0
-78 -136 -255 -279 0
-78 -136 -256 -278 0
-78 -136 -257 -276 0
-78 -136 -262 -270 0
-78 -137 -258 -273 0
-78 -137 -263 -268 0
-78 -138 -253 -280 0
-78 -138 -258 -272 0
-78 -138 -262 -268 0
-78 -146 -222 -285 0
-78 -146 -225 -282 0
-78 -146 -226 -281 0
-78 -146 -227 -280 0
-78 -146 -229 -278 0
-78 -146 -230 -277 0
-78 -147 -217 -286 0
-78 -147 -218 -285 0
-78 -147 -220 -283 0
-78 -147 -225 -276 0
-78 -147 -226 -275 0
-78 -147 -227 -274 0
-78 -147 -228 -273 0
-78 -147 -229 -272 0
-78 -147 -230 -271 0
-78 -149 -227 -269 0
-78 -149 -230 -267 0
-78 -150 -227 -268 0
-78 -151 -226 -268 0
-78 -152 -212 -286 0
-78 -152 -213 -285 0
-78 -152 -225 -266 0
-78 -152 -229 -262 0
-78 -152 -230 -261 0
-78 -154 -223 -263 0
-78 -154 -224 -262 0
-78 -154 -226 -260 0
-78 -155 -213 -279 0
-78 -155 -222 -263 0
-78 -155 -225 -260 0
-78 -155 -227 -258 0
-78 -156 -212 -280 0
-78 -156 -214 -277 0
-78 -158 -219 -263 0
-78 -159 -212 -275 0
-78 -159 -213 -273 0
-78 -159 -218 -263 0
-78 -159 -229 -253 0
-78 -160 -213 -272 0
-78 -160 -218 -262 0
-78 -160 -226 -254 0
-78 -164 -212 -270 0
-78 -164 -215 -267 0
-78 -164 -217 -260 0
-78 -164 -220 -257 0
-78 -164 -221 -256 0
-78 -164 -224 -253 0
-78 -165 -212 -269 0
-78 -165 -214 -267 0
-78 -165 -217 -259 0
-78 -165 -219 -257 0
-78 -165 -221 -255 0
-78 -166 -212 -268 0
-78 -166 -213 -267 0
-78 -166 -217 -258 0
-78 -166 -218 -257 0
-78 -166 -221 -254 0
-78 -166 -222 -253 0
-79 -131 -267 -286 0
-79 -131 -271 -282 0
-79 -131 -272 -281 0
-79 -131 -273 -280 0
-79 -131 -276 -277 0
-79 -133 -242 -286 0
-79 -133 -243 -285 0
-79 -133 -245 -283 0
-79 -133 -246 -282 0
-79 -133 -247 -281 0
-79 -133 -248 -280 0
-79 -133 -250 -278 0
-79 -133 -251 -277 0
-79 -134 -238 -286 0
-79 -134 -239 -285 0
-79 -134 -240 -284 0
-79 -134 -246 -276 0
-79 -134 -248 -274 0
-79 -134 -249 -273 0
-79 -134 -250 -272 0
-79 -134 -251 -271 0
-79 -136 -238 -282 0
-79 -136 -242 -276 0
-79 -136 -248 -269 0
-79 -137 -248 -268 0
-79 -140 -221 -286 0
-79 -140 -222 -285 0
-79 -140 -225 -282 0
-79 -140 -230 -277 0
-79 -141 -225 -276 0
-79 -141 -226 -275 0
-79 -141 -228 -273 0
-79 -143 -217 -282 0
-79 -143 -230 -267 0
-79 -144 -218 -279 0
-79 -152 -206 -286 0
-79 -152 -207 -285 0
-79 -152 -208 -284 0
-79 -152 -225 -251 0
-79 -152 -226 -250 0
-79 -152 -227 -249 0
-79 -152 -228 -248 0
-79 -152 -229 -247 0
-79 -152 -230 -246 0
-79 -154 -208 -279 0
-79 -154 -227 -244 0
-79 -155 -222 -248 0
-79 -156 -222 -247 0
-79 -158 -217 -251 0
-79 -159 -218 -248 0
-79 -159 -227 -239 0
-79 -159 -229 -238 0
-79 -160 -208 -271 0
-79 -160 -226 -239 0
-79 -164 -206 -270 0
-79 -164 -220 -242 0
-79 -164 -221 -241 0
-79 -164 -224 -238 0
-79 -165 -206 -269 0
-79 -165 -208 -267 0
-79 -165 -217 -244 0
-79 -165 -219 -242 0
-79 -165 -221 -240 0
-79 -165 -223 -238 0
-79 -166 -206 -268 0
-79 -166 -207 -267 0
-79 -166 -217 -243 0
-79 -166 -218 -242 0
-79 -166 -221 -239 0
-79 -166 -222 -238 0
-80 -131 -257 -286 0
-80 -131 -264 -279 0
-80 -132 -242 -286 0
-80 -132 -251 -277 0
-80 -134 -233 -286 0
-80 -134 -251 -261 0
-80 -136 -235 -279 0
-80 -139 -221 -286 0
-80 -139 -222 -285 0
-80 -139 -224 -283 0
-80 -141 -213 -285 0
-80 -141 -215 -283 0
-80 -141 -227 -264 0
-80 -143 -214 -279 0
-80 -147 -206 -286 0
-80 -147 -207 -285 0
-80 -147 -208 -284 0
-80 -147 -225 -251 0
-80 -147 -228 -248 0
-80 -147 -230 -246 0
-80 -149 -209 -278 0
-80 -149 -224 -247 0
-80 -151 -225 -244 0
-80 -158 -208 -263 0
-80 -158 -212 -251 0
-80 -158 -214 -248 0
-80 -159 -215 -246 0
-80 -159 -225 -236 0
-80 -159 -227 -234 0
-80 -160 -206 -264 0
-80 -160 -213 -247 0
-80 -164 -209 -257 0
-80 -164 -215 -242 0
-80 -164 -221 -236 0
-80 -164 -224 -233 0
-80 -165 -208 -257 0
-80 -165 -212 -244 0
-80 -165 -214 -242 0
-80 -165 -223 -233 0
-80 -166 -206 -258 0
-80 -166 -207 -257 0
-80 -166 -212 -243 0
-80 -166 -213 -242 0
-80 -166 -221 -234 0
-80 -166 -222 -233 0
-81 -131 -253 -286 0
-81 -131 -254 -285 0
-81 -131 -264 -273 0
-81 -132 -238 -286 0
-81 -132 -241 -283 0
-81 -132 -246 -276 0
-81 -132 -249 -273 0
-81 -132 -251 -271 0
-81 -133 -233 -286 0
-81 -133 -235 -284 0
-81 -133 -249 -263 0
-81 -133 -251 -261 0
-81 -136 -251 -253 0
-81 -137 -248 -254 0
-81 -137 -250 -253 0
-81 -138 -247 -254 0
-81 -138 -249 -253 0
-81 -139 -217 -286 0
-81 -139 -218 -285 0
-81 -139 -219 -284 0
-81 -139 -220 -283 0
-81 -139 -225 -276 0
-81 -139 -228 -273 0
-81 -139 -230 -271 0
-81 -140 -212 -286 0
-81 -140 -213 -285 0
-81 -143 -214 -273 0
-81 -144 -213 -273 0
-81 -144 -215 -271 0
-81 -145 -213 -272 0
-81 -145 -214 -271 0
-81 -146 -208 -284 0
-81 -146 -209 -283 0
-81 -146 -225 -251 0
-81 -146 -226 -250 0
-81 -146 -227 -249 0
-81 -146 -230 -246 0
-81 -149 -206 -276 0
-81 -149 -217 -251 0
-81 -149 -230 -238 0
-81 -151 -218 -247 0
-81 -154 -212 -251 0
-81 -155 -213 -248 0
-81 -156 -213 -247 0
-81 -164 -212 -241 0
-81 -164 -215 -238 0
-81 -165 -206 -255 0
-81 -165 -208 -253 0
-81 -165 -214 -238 0
-81 -165 -217 -235 0
-81 -166 -206 -254 0
-81 -166 -207 -253 0
-81 -166 -212 -239 0
-81 -166 -213 -238 0
-86 -127 -254 -282 0
-86 -127 -255 -281 0
-86 -127 -256 -280 0
-86 -127 -258 -276 0
-86 -127 -259 -275 0
-86 -127 -260 -274 0
-86 -127 -264 -270 0
-86 -127 -265 -269 0
-86 -127 -266 -268 0
-86 -146 -193 -286 0
-86 -146 -197 -282 0
-86 -147 -189 -286 0
-86 -147 -190 -285 0
-86 -147 -198 -275 0
-86 -147 -199 -274 0
-86 -147 -200 -273 0
-86 -147 -202 -271 0
-86 -149 -189 -282 0
-86 -149 -199 -269 0
-86 -149 -202 -267 0
-86 -150 -194 -273 0
-86 -150 -199 -268 0
-86 -151 -195 -271 0
-86 -151 -197 -269 0
-86 -152 -184 -286 0
-86 -152 -202 -261 0
-86 -154 -187 -278 0
-86 -154 -193 -266 0
-86 -154 -198 -260 0
-86 -154 -199 -259 0
-86 -155 -193 -265 0
-86 -155 -199 -258 0
-86 -155 -201 -257 0
-86 -156 -183 -283 0
-86 -156 -198 -258 0
-86 -158 -189 -266 0
-86 -158 -198 -256 0
-86 -159 -199 -254 0
-86 -160 -186 -271 0
-86 -160 -198 -254 0
-86 -164 -189 -260 0
-86 -164 -193 -256 0
-86 -165 -183 -272 0
-86 -165 -184 -269 0
-86 -165 -189 -259 0
-86 -165 -191 -257 0
-86 -165 -193 -255 0
-86 -165 -195 -253 0
-86 -166 -182 -277 0
-86 -166 -183 -271 0
-86 -166 -184 -268 0
-86 -166 -185 -267 0
-86 -166 -188 -261 0
-86 -166 -189 -258 0
-86 -166 -193 -254 0
-86 -166 -194 -253 0
-87 -127 -239 -282 0
-87 -127 -240 -281 0
-87 -127 -241 -280 0
-87 -127 -243 -276 0
-87 -127 -244 -275 0
-87 -127 -245 -274 0
-87 -127 -249 -270 0
-87 -127 -250 -269 0
-87 -127 -251 -268 0
-87 -140 -193 -286 0
-87 -140 -201 -278 0
-87 -140 -202 -277 0
-87 -141 -189 -286 0
-87 -141 -190 -285 0
-87 -143 -188 -285 0
-87 -143 -189 -282 0
-87 -143 -193 -276 0
-87 -143 -198 -270 0
-87 -143 -202 -267 0
-87 -144 -193 -275 0
-87 -144 -199 -268 0
-87 -144 -201 -267 0
-87 -145 -189 -280 0
-87 -145 -198 -268 0
-87 -152 -178 -286 0
-87 -152 -197 -251 0
-87 -152 -200 -248 0
-87 -154 -178 -282 0
-87 -154 -193 -251 0
-87 -155 -177 -284 0
-87 -155 -193 -250 0
-87 -155 -196 -246 0
-87 -155 -199 -243 0
-87 -158 -189 -251 0
-87 -158 -202 -238 0
-87 -159 -190 -248 0
-87 -159 -192 -246 0
-87 -160 -178 -274 0
-87 -160 -189 -249 0
-87 -160 -190 -247 0
-87 -164 -177 -273 0
-87 -164 -178 -270 0
-87 -164 -189 -245 0
-87 -164 -192 -242 0
-87 -164 -193 -241 0
-87 -164 -196 -238 0
-87 -165 -177 -272 0
-87 -165 -178 -269 0
-87 -165 -180 -267 0
-87 -165 -188 -247 0
-87 -165 -189 -244 0
-87 -165 -191 -242 0
-87 -165 -193 -240 0
-87 -165 -195 -238 0
-87 -166 -176 -277 0
-87 -166 -177 -271 0
-87 -166 -178 -268 0
-87 -166 -179 -267 0
-87 -166 -188 -246 0
-87 -166 -189 -243 0
-87 -166 -190 -242 0
-87 -166 -193 -239 0
-87 -166 -194 -238 0
-88 -127 -234 -282 0
-88 -127 -235 -281 0
-88 -127 -236 -280 0
-88 -127 -243 -266 0
-88 -127 -244 -265 0
-88 -127 -245 -264 0
-88 -127 -249 -260 0
-88 -127 -250 -259 0
-88 -127 -251 -258 0
-88 -139 -193 -286 0
-88 -139 -202 -277 0
-88 -143 -183 -285 0
-88 -144 -196 -261 0
-88 -144 -199 -258 0
-88 -145 -197 -259 0
-88 -145 -198 -258 0
-88 -147 -178 -286 0
-88 -147 -179 -285 0
-88 -147 -197 -251 0
-88 -150 -193 -250 0
-88 -158 -184 -251 0
-88 -158 -202 -233 0
-88 -159 -187 -246 0
-88 -164 -178 -260 0
-88 -164 -181 -257 0
-88 -164 -183 -248 0
-88 -164 -193 -236 0
-88 -164 -196 -233 0
-88 -165 -178 -259 0
-88 -165 -180 -257 0
-88 -165 -183 -247 0
-88 -165 -184 -244 0
-88 -165 -193 -235 0
-88 -165 -195 -233 0
-88 -166 -175 -277 0
-88 -166 -177 -261 0
-88 -166 -178 -258 0
-88 -166 -179 -257 0
-88 -166 -183 -246 0
-88 -166 -184 -243 0
-88 -166 -185 -242 0
-88 -166 -193 -234 0
-88 -166 -194 -233 0
-89 -127 -234 -276 0
-89 -127 -235 -275 0
-89 -127 -236 -274 0
-89 -127 -239 -266 0
-89 -127 -240 -265 0
-89 -127 -241 -264 0
-89 -127 -249 -256 0
-89 -127 -250 -255 0
-89 -127 -251 -254 0
-89 -139 -189 -286 0
-89 -139 -198 -275 0
-89 -140 -184 -286 0
-89 -143 -184 -276 0
-89 -143 -198 -256 0
-89 -144 -199 -254 0
-89 -145 -198 -254 0
-89 -145 -200 -253 0
-89 -149 -178 -276 0
-89 -154 -184 -251 0
-89 -155 -197 -236 0
-89 -156 -175 -283 0
-89 -156 -186 -246 0
-89 -164 -178 -256 0
-89 -164 -181 -253 0
-89 -164 -182 -248 0
-89 -164 -184 -241 0
-89 -164 -187 -238 0
-89 -164 -189 -236 0
-89 -164 -192 -233 0
-89 -165 -178 -255 0
-89 -165 -182 -247 0
-89 -165 -184 -240 0
-89 -165 -189 -235 0
-89 -166 -175 -271 0
-89 -166 -178 -254 0
-89 -166 -179 -253 0
-89 -166 -182 -246 0
-89 -166 -184 -239 0
-89 -166 -185 -238 0
-89 -166 -189 -234 0
-89 -166 -190 -233 0
-94 -127 -218 -282 0
-94 -127 -219 -281 0
-94 -127 -220 -280 0
-94 -127 -222 -276 0
-94 -127 -223 -275 0
-94 -127 -224 -274 0
-94 -127 -228 -270 0
-94 -127 -229 -269 0
-94 -127 -230 -268 0
-94 -133 -193 -286 0
-94 -133 -195 -284 0
-94 -133 -198 -281 0
-94 -133 -201 -278 0
-94 -134 -189 -286 0
-94 -137 -197 -270 0
-94 -138 -189 -280 0
-94 -138 -197 -269 0
-94 -152 -171 -286 0
-94 -155 -193 -229 0
-94 -155 -199 -222 0
-94 -156 -193 -228 0
-94 -156 -198 -222 0
-94 -158 -189 -230 0
-94 -160 -171 -274 0
-94 -164 -169 -279 0
-94 -164 -171 -270 0
-94 -164 -189 -224 0
-94 -164 -193 -220 0
-94 -165 -169 -278 0
-94 -165 -170 -272 0
-94 -165 -171 -269 0
-94 -165 -189 -223 0
-94 -165 -193 -219 0
-94 -166 -169 -277 0
-94 -166 -170 -271 0
-94 -166 -171 -268 0
-94 -166 -172 -267 0
-94 -166 -189 -222 0
-94 -166 -190 -221 0
-94 -166 -193 -218 0
-94 -166 -194 -217 0
-95 -127 -211 -286 0
-95 -127 -213 -282 0
-95 -127 -214 -281 0
-95 -127 -215 -280 0
-95 -127 -222 -266 0
-95 -127 -223 -265 0
-95 -127 -224 -264 0
-95 -127 -228 -260 0
-95 -127 -229 -259 0
-95 -127 -230 -258 0
-95 -134 -184 -286 0
-95 -136 -184 -282 0
-95 -136 -186 -279 0
-95 -137 -197 -260 0
-95 -137 -199 -258 0
-95 -138 -193 -264 0
-95 -147 -171 -286 0
-95 -149 -193 -230 0
-95 -150 -170 -284 0
-95 -150 -171 -281 0
-95 -150 -193 -229 0
-95 -158 -184 -230 0
-95 -160 -171 -264 0
-95 -160 -198 -213 0
-95 -164 -171 -260 0
-95 -164 -183 -227 0
-95 -164 -184 -224 0
-95 -164 -193 -215 0
-95 -164 -196 -212 0
-95 -165 -168 -278 0
-95 -165 -171 -259 0
-95 -165 -184 -223 0
-95 -165 -193 -214 0
-95 -166 -168 -277 0
-95 -166 -170 -261 0
-95 -166 -171 -258 0
-95 -166 -172 -257 0
-95 -166 -183 -225 0
-95 -166 -184 -222 0
-95 -166 -185 -221 0
-95 -166 -193 -213 0
-95 -166 -194 -212 0
-96 -127 -213 -276 0
-96 -127 -214 -275 0
-96 -127 -215 -274 0
-96 -127 -218 -266 0
-96 -127 -219 -265 0
-96 -127 -220 -264 0
-96 -127 -228 -256 0
-96 -127 -229 -255 0
-96 -127 -230 -254 0
-96 -132 -189 -286 0
-96 -132 -202 -271 0
-96 -133 -184 -286 0
-96 -133 -202 -261 0
-96 -136 -189 -266 0
-96 -136 -198 -256 0
-96 -138 -185 -272 0
-96 -138 -198 -254 0
-96 -146 -171 -286 0
-96 -149 -169 -285 0
-96 -149 -171 -276 0
-96 -149 -189 -230 0
-96 -149 -202 -217 0
-96 -150 -169 -284 0
-96 -151 -173 -271 0
-96 -151 -198 -218 0
-96 -154 -184 -230 0
-96 -154 -187 -226 0
-96 -154 -198 -215 0
-96 -154 -202 -212 0
-96 -155 -199 -213 0
-96 -156 -197 -214 0
-96 -156 -198 -213 0
-96 -164 -171 -256 0
-96 -164 -184 -220 0
-96 -164 -187 -217 0
-96 -164 -189 -215 0
-96 -165 -171 -255 0
-96 -165 -182 -226 0
-96 -165 -184 -219 0
-96 -165 -189 -214 0
-96 -165 -191 -212 0
-96 -166 -168 -271 0
-96 -166 -169 -261 0
-96 -166 -171 -254 0
-96 -166 -172 -253 0
-96 -166 -182 -225 0
-96 -166 -184 -218 0
-96 -166 -185 -217 0
-96 -166 -189 -213 0
-96 -166 -190 -212 0
-101 -127 -207 -282 0
-101 -127 -208 -281 0
-101 -127 -209 -280 0
-101 -127 -222 -251 0
-101 -127 -223 -250 0
-101 -127 -224 -249 0
-101 -127 -228 -245 0
-101 -127 -229 -244 0
-101 -127 -230 -243 0
-101 -131 -193 -286 0
-101 -131 -194 -285 0
-101 -131 -195 -284 0
-101 -131 -200 -279 0
-101 -134 -178 -286 0
-101 -134 -180 -284 0
-101 -134 -197 -251 0
-101 -134 -198 -250 0
-101 -134 -202 -246 0
-101 -136 -180 -279 0
-101 -136 -181 -278 0
-101 -136 -193 -251 0
-101 -136 -195 -248 0
-101 -136 -198 -245 0
-101 -137 -194 -248 0
-101 -138 -194 -247 0
-101 -143 -170 -285 0
-101 -143 -193 -230 0
-101 -143 -198 -224 0
-101 -143 -202 -221 0
-101 -144 -196 -225 0
-101 -144 -197 -224 0
-101 -144 -199 -222 0
-101 -145 -170 -283 0
-101 -145 -197 -223 0
-101 -158 -167 -285 0
-101 -158 -178 -230 0
-101 -158 -181 -226 0
-101 -158 -198 -209 0
-101 -159 -171 -250 0
-101 -160 -197 -208 0
-101 -160 -198 -207 0
-101 -164 -170 -248 0
-101 -164 -178 -224 0
-101 -164 -193 -209 0
-101 -164 -196 -206 0
-101 -165 -167 -278 0
-101 -165 -170 -247 0
-101 -165 -171 -244 0
-101 -165 -178 -223 0
-101 -165 -193 -208 0
-101 -165 -195 -206 0
-101 -166 -167 -277 0
-101 -166 -170 -246 0
-101 -166 -171 -243 0
-101 -166 -178 -222 0
-101 -166 -179 -221 0
-101 -166 -193 -207 0
-101 -166 -194 -206 0
-102 -127 -207 -276 0
-102 -127 -208 -275 0
-102 -127 -209 -274 0
-102 -127 -218 -251 0
-102 -127 -219 -250 0
-102 -127 -220 -249 0
-102 -127 -228 -241 0
-102 -127 -229 -240 0
-102 -127 -230 -239 0
-102 -131 -189 -286 0
-102 -133 -178 -286 0
-102 -136 -180 -273 0
-102 -136 -181 -272 0
-102 -136 -189 -251 0
-102 -136 -202 -238 0
-102 -137 -189 -250 0
-102 -140 -171 -286 0
-102 -140 -202 -225 0
-102 -143 -169 -285 0
-102 -143 -189 -230 0
-102 -143 -199 -219 0
-102 -144 -199 -218 0
-102 -145 -169 -283 0
-102 -145 -198 -218 0
-102 -154 -171 -251 0
-102 -154 -178 -230 0
-102 -155 -174 -246 0
-102 -156 -198 -207 0
-102 -164 -167 -273 0
-102 -164 -169 -248 0
-102 -164 -171 -241 0
-102 -164 -174 -238 0
-102 -164 -178 -220 0
-102 -164 -181 -217 0
-102 -164 -189 -209 0
-102 -165 -167 -272 0
-102 -165 -169 -247 0
-102 -165 -171 -240 0
-102 -165 -173 -238 0
-102 -165 -176 -226 0
-102 -165 -178 -219 0
-102 -165 -189 -208 0
-102 -165 -191 -206 0
-102 -166 -167 -271 0
-102 -166 -169 -246 0
-102 -166 -171 -239 0
-102 -166 -178 -218 0
-102 -166 -189 -207 0
-102 -166 -190 -206 0
-107 -127 -203 -286 0
-107 -127 -207 -266 0
-107 -127 -208 -265 0
-107 -127 -209 -264 0
-107 -127 -213 -251 0
-107 -127 -214 -250 0
-107 -127 -215 -249 0
-107 -127 -228 -236 0
-107 -127 -229 -235 0
-107 -127 -230 -234 0
-107 -131 -184 -286 0
-107 -136 -187 -247 0
-107 -136 -199 -235 0
-107 -136 -202 -233 0
-107 -137 -185 -248 0
-107 -137 -199 -234 0
-107 -138 -175 -283 0
-107 -138 -178 -264 0
-107 -138 -184 -249 0
-107 -138 -185 -247 0
-107 -139 -171 -286 0
-107 -139 -174 -283 0
-107 -139 -202 -225 0
-107 -145 -198 -213 0
-107 -149 -171 -251 0
-107 -149 -199 -208 0
-107 -150 -199 -207 0
-107 -164 -167 -263 0
-107 -164 -168 -248 0
-107 -164 -171 -236 0
-107 -164 -174 -233 0
-107 -164 -178 -215 0
-107 -164 -181 -212 0
-107 -164 -184 -209 0
-107 -165 -168 -247 0
-107 -165 -171 -235 0
-107 -165 -178 -214 0
-107 -165 -180 -212 0
-107 -165 -184 -208 0
-107 -165 -186 -206 0
-107 -166 -168 -246 0
-107 -166 -171 -234 0
-107 -166 -172 -233 0
-107 -166 -178 -213 0
-107 -166 -179 -212 0
-107 -166 -184 -207 0
-116 -131 -182 -282 0
-116 -131 -183 -276 0
-116 -131 -188 -266 0
-116 -132 -176 -282 0
-116 -132 -177 -276 0
-116 -132 -188 -251 0
-116 -133 -175 -282 0
-116 -133 -177 -266 0
-116 -133 -181 -259 0
-116 -133 -183 -251 0
-116 -133 -187 -244 0
-116 -134 -175 -276 0
-116 -134 -176 -266 0
-116 -134 -180 -256 0
-116 -134 -181 -255 0
-116 -134 -182 -251 0
-116 -137 -182 -245 0
-116 -137 -183 -241 0
-116 -138 -177 -255 0
-116 -139 -169 -282 0
-116 -139 -170 -276 0
-116 -139 -188 -230 0
-116 -140 -168 -282 0
-116 -140 -170 -266 0
-116 -140 -183 -230 0
-116 -141 -168 -276 0
-116 -141 -169 -266 0
-116 -141 -182 -230 0
-116 -144 -168 -270 0
-116 -144 -182 -224 0
-116 -144 -183 -220 0
-116 -145 -182 -223 0
-116 -145 -183 -219 0
-116 -146 -167 -282 0
-116 -146 -170 -251 0
-116 -146 -177 -230 0
-116 -147 -167 -276 0
-116 -147 -169 -251 0
-116 -147 -176 -230 0
-116 -147 -192 -208 0
-116 -151 -169 -244 0
-116 -152 -167 -266 0
-116 -152 -168 -251 0
-116 -152 -175 -230 0
-116 -155 -170 -236 0
-116 -155 -177 -215 0
-116 -156 -167 -259 0
-116 -159 -168 -241 0
-116 -159 -169 -236 0
-116 -159 -176 -215 0
-117 -131 -182 -281 0
-117 -131 -183 -275 0
-117 -132 -176 -281 0
-117 -132 -177 -275 0
-117 -132 -188 -250 0
-117 -132 -192 -243 0
-117 -132 -196 -239 0
-117 -133 -175 -281 0
-117 -133 -177 -265 0
-117 -133 -183 -250 0
-117 -134 -175 -275 0
-117 -134 -176 -265 0
-117 -134 -179 -256 0
-117 -134 -181 -254 0
-117 -134 -182 -250 0
-117 -138 -175 -268 0
-117 -138 -176 -258 0
-117 -138 -182 -243 0
-117 -139 -169 -281 0
-117 -139 -170 -275 0
-117 -139 -188 -229 0
-117 -139 -192 -222 0
-117 -139 -196 -218 0
-117 -140 -168 -281 0
-117 -140 -170 -265 0
-117 -140 -183 -229 0
-117 -141 -168 -275 0
-117 -141 -169 -265 0
-117 -141 -182 -229 0
-117 -145 -169 -258 0
-117 -145 -170 -254 0
-117 -145 -182 -222 0
-117 -145 -183 -218 0
-117 -145 -188 -213 0
-117 -146 -170 -250 0
-117 -147 -167 -275 0
-117 -147 -169 -250 0
-117 -147 -176 -229 0
-117 -147 -190 -209 0
-117 -151 -169 -243 0
-117 -151 -188 -207 0
-117 -152 -167 -265 0
-117 -152 -168 -250 0
-117 -152 -175 -229 0
-117 -152 -179 -215 0
-117 -152 -187 -207 0
-117 -154 -177 -215 0
-117 -156 -168 -243 0
-117 -156 -175 -222 0
-117 -158 -169 -236 0
-117 -158 -176 -215 0
-117 -160 -167 -254 0
-117 -160 -168 -239 0
-117 -160 -176 -213 0
-118 -131 -182 -280 0
-118 -131 -183 -274 0
-118 -131 -185 -269 0
-118 -131 -191 -258 0
-118 -132 -176 -280 0
-118 -132 -177 -274 0
-118 -133 -175 -280 0
-118 -133 -177 -264 0
-118 -133 -179 -259 0
-118 -133 -180 -258 0
-118 -133 -186 -243 0
-118 -134 -175 -274 0
-118 -134 -176 -264 0
-118 -134 -180 -254 0
-118 -136 -182 -244 0
-118 -136 -183 -240 0
-118 -137 -175 -268 0
-118 -139 -169 -280 0
-118 -139 -170 -274 0
-118 -139 -188 -228 0
-118 -140 -168 -280 0
-118 -140 -170 -264 0
-118 -141 -168 -274 0
-118 -141 -190 -214 0
-118 -143 -168 -269 0
-118 -143 -182 -223 0
-118 -144 -168 -268 0
-118 -144 -169 -258 0
-118 -144 -170 -254 0
-118 -144 -182 -222 0
-118 -144 -183 -218 0
-118 -144 -188 -213 0
-118 -146 -177 -228 0
-118 -146 -179 -223 0
-118 -147 -169 -249 0
-118 -147 -176 -228 0
-118 -147 -191 -207 0
-118 -150 -169 -243 0
-118 -150 -170 -239 0
-118 -150 -188 -207 0
-118 -152 -167 -264 0
-118 -152 -175 -228 0
-118 -152 -180 -213 0
-118 -152 -186 -207 0
-118 -155 -168 -243 0
-118 -155 -177 -213 0
-118 -155 -183 -207 0
-118 -158 -175 -219 0
-118 -159 -167 -254 0
-119 -131 -182 -279 0
-119 -131 -183 -273 0
-119 -131 -184 -270 0
-119 -131 -188 -263 0
-119 -131 -189 -260 0
-119 -131 -193 -256 0
-119 -132 -178 -270 0
-119 -132 -181 -267 0
-119 -132 -189 -245 0
-119 -132 -193 -241 0
-119 -132 -196 -238 0
-119 -133 -177 -263 0
-119 -133 -178 -260 0
-119 -133 -181 -257 0
-119 -133 -183 -248 0
-119 -133 -193 -236 0
-119 -133 -196 -233 0
-119 -134 -175 -273 0
-119 -134 -176 -263 0
-119 -134 -178 -256 0
-119 -134 -182 -248 0
-119 -134 -184 -241 0
-119 -134 -189 -236 0
-119 -138 -175 -267 0
-119 -138 -176 -257 0
-119 -138 -177 -253 0
-119 -138 -182 -242 0
-119 -138 -183 -238 0
-119 -138 -188 -233 0
-119 -139 -169 -279 0
-119 -139 -171 -270 0
-119 -139 -188 -227 0
-119 -139 -189 -224 0
-119 -139 -193 -220 0
-119 -140 -168 -279 0
-119 -140 -170 -263 0
-119 -140 -171 -260 0
-119 -140 -183 -227 0
-119 -140 -184 -224 0
-119 -140 -193 -215 0
-119 -140 -196 -212 0
-119 -141 -168 -273 0
-119 -141 -169 -263 0
-119 -141 -171 -256 0
-119 -141 -182 -227 0
-119 -141 -184 -220 0
-119 -141 -189 -215 0
-119 -141 -192 -212 0
-119 -145 -169 -257 0
-119 -145 -170 -253 0
-119 -145 -182 -221 0
-119 -145 -188 -212 0
-119 -146 -167 -279 0
-119 -146 -170 -248 0
-119 -146 -171 -245 0
-119 -146 -177 -227 0
-119 -146 -178 -224 0
-119 -146 -193 -209 0
-119 -146 -196 -206 0
-119 -147 -167 -273 0
-119 -147 -169 -248 0
-119 -147 -171 -241 0
-119 -147 -174 -238 0
-119 -147 -176 -227 0
-119 -147 -178 -220 0
-119 -147 -189 -209 0
-119 -147 -192 -206 0
-119 -151 -170 -238 0
-119 -151 -176 -221 0
-119 -151 -188 -206 0
-119 -152 -168 -248 0
-119 -152 -171 -236 0
-119 -152 -174 -233 0
-119 -152 -178 -215 0
-119 -152 -184 -209 0
-119 -156 -167 -257 0
-119 -156 -168 -242 0
-119 -156 -170 -233 0
-119 -156 -177 -212 0
-119 -156 -183 -206 0
-119 -160 -167 -253 0
-119 -160 -168 -238 0
-119 -160 -169 -233 0
-119 -160 -176 -212 0
-119 -160 -182 -206 0
-120 -131 -183 -272 0
-120 -131 -184 -269 0
-120 -131 -188 -262 0
-120 -131 -189 -259 0
-120 -131 -193 -255 0
-120 -132 -178 -269 0
-120 -132 -188 -247 0
-120 -132 -189 -244 0
-120 -132 -193 -240 0
-120 -132 -195 -238 0
-120 -133 -177 -262 0
-120 -133 -178 -259 0
-120 -133 -180 -257 0
-120 -133 -183 -247 0
-120 -133 -184 -244 0
-120 -133 -186 -242 0
-120 -133 -193 -235 0
-120 -133 -195 -233 0
-120 -134 -178 -255 0
-120 -134 -180 -253 0
-120 -134 -182 -247 0
-120 -134 -184 -240 0
-120 -134 -186 -238 0
-120 -134 -189 -235 0
-120 -134 -191 -233 0
-120 -137 -175 -267 0
-120 -137 -176 -257 0
-120 -137 -182 -242 0
-120 -137 -183 -238 0
-120 -137 -188 -233 0
-120 -139 -169 -278 0
-120 -139 -170 -272 0
-120 -139 -171 -269 0
-120 -139 -173 -267 0
-120 -139 -188 -226 0
-120 -139 -189 -223 0
-120 -139 -191 -221 0
-120 -139 -193 -219 0
-120 -140 -168 -278 0
-120 -140 -170 -262 0
-120 -140 -171 -259 0
-120 -140 -173 -257 0
-120 -140 -183 -226 0
-120 -140 -184 -223 0
-120 -140 -193 -214 0
-120 -140 -195 -212 0
-120 -141 -168 -272 0
-120 -141 -169 -262 0
-120 -141 -171 -255 0
-120 -141 -182 -226 0
-120 -141 -184 -219 0
-120 -141 -189 -214 0
-120 -144 -168 -267 0
-120 -144 -169 -257 0
-120 -144 -170 -253 0
-120 -144 -182 -221 0
-120 -144 -183 -217 0
-120 -144 -188 -212 0
-120 -146 -170 -247 0
-120 -146 -171 -244 0
-120 -146 -177 -226 0
-120 -146 -178 -223 0
-120 -146 -193 -208 0
-120 -147 -169 -247 0
-120 -147 -171 -240 0
-120 -147 -173 -238 0
-120 -147 -178 -219 0
-120 -147 -180 -217 0
-120 -147 -189 -208 0
-120 -147 -191 -206 0
-120 -150 -167 -267 0
-120 -150 -169 -242 0
-120 -150 -170 -238 0
-120 -150 -177 -217 0
-120 -150 -188 -206 0
-120 -152 -168 -247 0
-120 -152 -171 -235 0
-120 -152 -173 -233 0
-120 -152 -178 -214 0
-120 -152 -180 -212 0
-120 -152 -184 -208 0
-120 -152 -186 -206 0
-120 -155 -167 -257 0
-120 -155 -168 -242 0
-120 -155 -170 -233 0
-120 -155 -175 -221 0
-120 -155 -183 -206 0
-120 -159 -167 -253 0
-120 -159 -168 -238 0
-120 -159 -169 -233 0
-120 -159 -176 -212 0
-120 -159 -182 -206 0
-121 -131 -182 -277 0
-121 -131 -183 -271 0
-121 -131 -185 -267 0
-121 -131 -188 -261 0
-121 -131 -189 -258 0
-121 -131 -190 -257 0
-121 -131 -193 -254 0
-121 -132 -176 -277 0
-121 -132 -178 -268 0
-121 -132 -188 -246 0
-121 -132 -189 -243 0
-121 -132 -193 -239 0
-121 -133 -175 -277 0
-121 -133 -178 -258 0
-121 -133 -179 -257 0
-121 -133 -183 -246 0
-121 -133 -184 -243 0
-121 -133 -185 -242 0
-121 -133 -193 -234 0
-121 -133 -194 -233 0
-121 -134 -175 -271 0
-121 -134 -176 -261 0
-121 -134 -178 -254 0
-121 -134 -179 -253 0
-121 -134 -182 -246 0
-121 -134 -184 -239 0
-121 -134 -185 -238 0
-121 -134 -189 -234 0
-121 -134 -190 -233 0
-121 -136 -175 -267 0
-121 -136 -176 -257 0
-121 -136 -177 -253 0
-121 -136 -182 -242 0
-121 -136 -183 -238 0
-121 -136 -188 -233 0
-121 -139 -169 -277 0
-121 -139 -170 -271 0
-121 -139 -171 -268 0
-121 -139 -188 -225 0
-121 -139 -189 -222 0
-121 -139 -193 -218 0
-121 -139 -194 -217 0
-121 -140 -168 -277 0
-121 -140 -170 -261 0
-121 -140 -171 -258 0
-121 -140 -172 -257 0
-121 -140 -183 -225 0
-121 -140 -184 -222 0
-121 -140 -193 -213 0
-121 -141 -168 -271 0
-121 -141 -169 -261 0
-121 -141 -171 -254 0
-121 -141 -182 -225 0
-121 -141 -184 -218 0
-121 -141 -189 -213 0
-121 -141 -190 -212 0
-121 -143 -168 -267 0
-121 -143 -169 -257 0
-121 -143 -170 -253 0
-121 -143 -182 -221 0
-121 -143 -183 -217 0
-121 -143 -188 -212 0
-121 -146 -167 -277 0
-121 -146 -170 -246 0
-121 -146 -171 -243 0
-121 -146 -172 -242 0
-121 -146 -178 -222 0
-121 -146 -193 -207 0
-121 -147 -167 -271 0
-121 -147 -169 -246 0
-121 -147 -171 -239 0
-121 -147 -172 -238 0
-121 -147 -176 -225 0
-121 -147 -178 -218 0
-121 -147 -179 -217 0
-121 -147 -189 -207 0
-121 -147 -190 -206 0
-121 -149 -167 -267 0
-121 -149 -169 -242 0
-121 -149 -170 -238 0
-121 -149 -176 -221 0
-121 -149 -177 -217 0
-121 -149 -188 -206 0
-121 -152 -167 -261 0
-121 -152 -168 -246 0
-121 -152 -171 -234 0
-121 -152 -172 -233 0
-121 -152 -175 -225 0
-121 -152 -178 -213 0
-121 -152 -179 -212 0
-121 -152 -184 -207 0
-121 -152 -185 -206 0
-121 -154 -168 -242 0
-121 -154 -170 -233 0
-121 -154 -175 -221 0
-121 -154 -183 -206 0
-121 -158 -167 -253 0
-121 -158 -168 -238 0
-121 -158 -169 -233 0
-121 -158 -176 -212 0
-121 -158 -182 -206 0
1 0
2 0
3 0
4 0
5 0
6 0
7 0
-8 0
-9 0
-10 0
-11 0
12 0
-13 0
-14 0
-15 0
-16 0
-17 0
18 0
-19 0
-20 0
-21 0
