p cnf 286 3217
-1 -2 -3 -12 -13 -22 0
-2 -4 -5 -23 -24 -39 0
-2 -4 -6 -23 -25 -40 0
-2 -4 -7 -23 -26 -41 0
-2 -5 -6 -24 -25 -46 0
-2 -5 -7 -24 -26 -47 0
-2 -6 -7 -25 -26 -52 0
-3 -4 -5 -31 -32 -39 0
-3 -4 -6 -31 -33 -40 0
-3 -4 -7 -31 -34 -41 0
-3 -5 -6 -32 -33 -46 0
-3 -5 -7 -32 -34 -47 0
-3 -6 -7 -33 -34 -52 0
-4 -5 -6 -39 -40 -46 0
-4 -5 -7 -39 -41 -47 0
-4 -6 -7 -40 -41 -52 0
-5 -6 -7 -46 -47 -52 0
8 9 10 61 62 64 0
8 9 11 61 63 65 0
8 10 11 62 63 66 0
9 10 11 64 65 66 0
14 15 16 39 40 46 0
14 15 17 39 41 47 0
14 15 18 39 42 48 0
14 15 19 39 43 49 0
14 15 20 39 44 50 0
14 15 21 39 45 51 0
14 16 17 40 41 52 0
14 16 18 40 42 53 0
14 16 19 40 43 54 0
14 16 20 40 44 55 0
14 16 21 40 45 56 0
14 17 18 41 42 57 0
14 17 19 41 43 58 0
14 17 20 41 44 59 0
14 17 21 41 45 60 0
14 18 19 42 43 61 0
14 18 20 42 44 62 0
14 18 21 42 45 63 0
14 19 20 43 44 64 0
14 19 21 43 45 65 0
14 20 21 44 45 66 0
15 16 17 46 47 52 0
15 16 18 46 48 53 0
15 16 19 46 49 54 0
15 16 20 46 50 55 0
15 16 21 46 51 56 0
15 17 18 47 48 57 0
15 17 19 47 49 58 0
15 17 20 47 50 59 0
15 17 21 47 51 60 0
15 18 19 48 49 61 0
15 18 20 48 50 62 0
15 18 21 48 51 63 0
15 19 20 49 50 64 0
15 19 21 49 51 65 0
15 20 21 50 51 66 0
16 17 18 52 53 57 0
16 17 19 52 54 58 0
16 17 20 52 55 59 0
16 17 21 52 56 60 0
16 18 19 53 54 61 0
16 18 20 53 55 62 0
16 18 21 53 56 63 0
16 19 20 54 55 64 0
16 19 21 54 56 65 0
16 20 21 55 56 66 0
17 18 19 57 58 61 0
17 18 20 57 59 62 0
17 18 21 57 60 63 0
17 19 20 58 59 64 0
17 19 21 58 60 65 0
17 20 21 59 60 66 0
22 23 24 31 32 39 0
22 23 25 31 33 40 0
22 23 26 31 34 41 0
22 23 27 31 35 42 0
22 23 28 31 36 43 0
22 23 29 31 37 44 0
22 23 30 31 38 45 0
22 24 25 32 33 46 0
22 24 26 32 34 47 0
22 24 27 32 35 48 0
22 24 28 32 36 49 0
22 24 29 32 37 50 0
22 24 30 32 38 51 0
22 25 26 33 34 52 0
22 25 27 33 35 53 0
22 25 28 33 36 54 0
22 25 29 33 37 55 0
22 25 30 33 38 56 0
22 26 27 34 35 57 0
22 26 28 34 36 58 0
22 26 29 34 37 59 0
22 26 30 34 38 60 0
22 27 29 35 37 62 0
22 28 29 36 37 64 0
22 29 30 37 38 66 0
-23 -27 -28 -42 -43 -61 0
-23 -27 -29 -42 -44 -62 0
-23 -27 -30 -42 -45 -63 0
-23 -28 -29 -43 -44 -64 0
-23 -28 -30 -43 -45 -65 0
-23 -29 -30 -44 -45 -66 0
-24 -27 -28 -48 -49 -61 0
-24 -27 -29 -48 -50 -62 0
-24 -27 -30 -48 -51 -63 0
-24 -28 -29 -49 -50 -64 0
-24 -28 -30 -49 -51 -65 0
-24 -29 -30 -50 -51 -66 0
-25 -27 -28 -53 -54 -61 0
-25 -27 -29 -53 -55 -62 0
-25 -27 -30 -53 -56 -63 0
-25 -28 -29 -54 -55 -64 0
-25 -28 -30 -54 -56 -65 0
-25 -29 -30 -55 -56 -66 0
-26 -27 -28 -57 -58 -61 0
-26 -27 -29 -57 -59 -62 0
-26 -27 -30 -57 -60 -63 0
-26 -28 -29 -58 -59 -64 0
-27 -28 -29 -61 -62 -64 0
31 32 33 39 40 46 0
-31 -35 -36 -42 -43 -61 0
-31 -35 -37 -42 -44 -62 0
-31 -35 -38 -42 -45 -63 0
-31 -36 -37 -43 -44 -64 0
-31 -36 -38 -43 -45 -65 0
-31 -37 -38 -44 -45 -66 0
-32 -35 -36 -48 -49 -61 0
-32 -35 -37 -48 -50 -62 0
-32 -35 -38 -48 -51 -63 0
-32 -36 -37 -49 -50 -64 0
-32 -37 -38 -50 -51 -66 0
-33 -35 -36 -53 -54 -61 0
-33 -35 -37 -53 -55 -62 0
-33 -35 -38 -53 -56 -63 0
-33 -36 -37 -54 -55 -64 0
-33 -36 -38 -54 -56 -65 0
-33 -37 -38 -55 -56 -66 0
-34 -35 -36 -57 -58 -61 0
-34 -35 -37 -57 -59 -62 0
34 35 37 57 59 62 0
-34 -35 -38 -57 -60 -63 0
-34 -36 -37 -58 -59 -64 0
-34 -36 -38 -58 -60 -65 0
-34 -37 -38 -59 -60 -66 0
-35 -37 -38 -62 -63 -66 0
-36 -37 -38 -64 -65 -66 0
-39 -42 -43 -48 -49 -61 0
-39 -42 -44 -48 -50 -62 0
-39 -42 -45 -48 -51 -63 0
-39 -43 -44 -49 -50 -64 0
-39 -43 -45 -49 -51 -65 0
-39 -44 -45 -50 -51 -66 0
-40 -41 -45 -52 -56 -60 0
-40 -42 -43 -53 -54 -61 0
-40 -42 -44 -53 -55 -62 0
-40 -42 -45 -53 -56 -63 0
-40 -43 -44 -54 -55 -64 0
-40 -43 -45 -54 -56 -65 0
-40 -44 -45 -55 -56 -66 0
-41 -42 -43 -57 -58 -61 0
-41 -42 -44 -57 -59 -62 0
-41 -42 -45 -57 -60 -63 0
-41 -43 -44 -58 -59 -64 0
-41 -43 -45 -58 -60 -65 0
-41 -44 -45 -59 -60 -66 0
-42 -43 -44 -61 -62 -64 0
-42 -43 -45 -61 -63 -65 0
-42 -44 -45 -62 -63 -66 0
-43 -44 -45 -64 -65 -66 0
-46 -48 -49 -53 -54 -61 0
-46 -48 -50 -53 -55 -62 0
-46 -48 -51 -53 -56 -63 0
-46 -49 -50 -54 -55 -64 0
-46 -49 -51 -54 -56 -65 0
-46 -50 -51 -55 -56 -66 0
-47 -48 -49 -57 -58 -61 0
-47 -48 -50 -57 -59 -62 0
-47 -48 -51 -57 -60 -63 0
-47 -49 -50 -58 -59 -64 0
-47 -49 -51 -58 -60 -65 0
-47 -50 -51 -59 -60 -66 0
-48 -49 -50 -61 -62 -64 0
-48 -49 -51 -61 -63 -65 0
-48 -50 -51 -62 -63 -66 0
-49 -50 -51 -64 -65 -66 0
-52 -53 -54 -57 -58 -61 0
-52 -53 -55 -57 -59 -62 0
-52 -53 -56 -57 -60 -63 0
-52 -54 -55 -58 -59 -64 0
-52 -54 -56 -58 -60 -65 0
-52 -55 -56 -59 -60 -66 0
-53 -54 -55 -61 -62 -64 0
-53 -54 -56 -61 -63 -65 0
-53 -55 -56 -62 -63 -66 0
-54 -55 -56 -64 -65 -66 0
-57 -58 -59 -61 -62 -64 0
-57 -58 -60 -61 -63 -65 0
-57 -59 -60 -62 -63 -66 0
-58 -59 -60 -64 -65 -66 0
-61 -62 -63 -64 -65 -66 0
67 -1 -2 -12 0
68 -1 -3 -13 0
78 -2 -4 -23 0
79 -2 -5 -24 0
80 -2 -6 -25 0
81 -2 -7 -26 0
86 -3 -4 -31 0
87 -3 -5 -32 0
88 -3 -6 -33 0
89 -3 -7 -34 0
94 -4 -5 -39 0
95 -4 -6 -40 0
96 -4 -7 -41 0
101 -5 -6 -46 0
102 -5 -7 -47 0
107 -6 -7 -52 0
116 8 9 61 0
117 8 10 62 0
118 8 11 63 0
119 9 10 64 0
120 9 11 65 0
121 10 11 66 0
139 14 15 39 0
140 14 16 40 0
141 14 17 41 0
142 14 18 42 0
143 14 19 43 0
144 14 20 44 0
145 14 21 45 0
146 15 16 46 0
147 15 17 47 0
148 15 18 48 0
149 15 19 49 0
150 15 20 50 0
151 15 21 51 0
152 16 17 52 0
153 16 18 53 0
154 16 19 54 0
155 16 20 55 0
156 16 21 56 0
157 17 18 57 0
158 17 19 58 0
159 17 20 59 0
160 17 21 60 0
161 18 19 61 0
162 18 20 62 0
163 18 21 63 0
164 19 20 64 0
165 19 21 65 0
166 20 21 66 0
167 22 23 31 0
168 22 24 32 0
169 22 25 33 0
170 22 26 34 0
171 22 27 35 0
172 22 28 36 0
173 22 29 37 0
174 22 30 38 0
175 23 24 39 0
176 23 25 40 0
177 -23 -26 -41 0
177 23 26 41 0
178 -23 -27 -42 0
178 23 27 42 0
179 -23 -28 -43 0
179 23 28 43 0
180 -23 -29 -44 0
180 23 29 44 0
181 -23 -30 -45 0
181 23 30 45 0
182 24 25 46 0
183 -24 -26 -47 0
183 24 26 47 0
184 -24 -27 -48 0
184 24 27 48 0
185 -24 -28 -49 0
185 24 28 49 0
186 -24 -29 -50 0
186 24 29 50 0
187 -24 -30 -51 0
187 24 30 51 0
188 25 26 52 0
189 -25 -27 -53 0
189 25 27 53 0
190 -25 -28 -54 0
190 25 28 54 0
191 -25 -29 -55 0
191 25 29 55 0
192 -25 -30 -56 0
192 25 30 56 0
193 -26 -27 -57 0
193 26 27 57 0
194 -26 -28 -58 0
194 26 28 58 0
195 -26 -29 -59 0
195 26 29 59 0
196 -26 -30 -60 0
196 26 30 60 0
197 -27 -28 -61 0
197 27 28 61 0
198 -27 -29 -62 0
198 27 29 62 0
199 -27 -30 -63 0
199 27 30 63 0
200 -28 -29 -64 0
200 28 29 64 0
201 -28 -30 -65 0
201 28 30 65 0
202 -29 -30 -66 0
202 29 30 66 0
203 -31 -32 -39 0
203 31 32 39 0
204 -31 -33 -40 0
204 31 33 40 0
205 -31 -34 -41 0
205 31 34 41 0
206 -31 -35 -42 0
206 31 35 42 0
207 -31 -36 -43 0
207 31 36 43 0
208 -31 -37 -44 0
208 31 37 44 0
209 -31 -38 -45 0
209 31 38 45 0
210 -32 -33 -46 0
210 32 33 46 0
211 -32 -34 -47 0
211 32 34 47 0
212 -32 -35 -48 0
212 32 35 48 0
213 -32 -36 -49 0
213 32 36 49 0
214 -32 -37 -50 0
214 32 37 50 0
215 -32 -38 -51 0
215 32 38 51 0
216 -33 -34 -52 0
216 33 34 52 0
217 -33 -35 -53 0
217 33 35 53 0
218 -33 -36 -54 0
218 33 36 54 0
219 -33 -37 -55 0
219 33 37 55 0
220 -33 -38 -56 0
220 33 38 56 0
221 -34 -35 -57 0
221 34 35 57 0
222 -34 -36 -58 0
222 34 36 58 0
223 -34 -37 -59 0
223 34 37 59 0
224 -34 -38 -60 0
224 34 38 60 0
225 -35 -36 -61 0
225 35 36 61 0
226 -35 -37 -62 0
226 35 37 62 0
227 -35 -38 -63 0
227 35 38 63 0
228 -36 -37 -64 0
228 36 37 64 0
229 -36 -38 -65 0
229 36 38 65 0
230 -37 -38 -66 0
230 37 38 66 0
233 -39 -42 -48 0
234 -39 -43 -49 0
235 -39 -44 -50 0
236 -39 -45 -51 0
238 -40 -42 -53 0
239 -40 -43 -54 0
239 40 43 54 0
240 -40 -44 -55 0
241 -40 -45 -56 0
242 -41 -42 -57 0
243 -41 -43 -58 0
244 -41 -44 -59 0
244 41 44 59 0
245 -41 -45 -60 0
245 41 45 60 0
246 -42 -43 -61 0
246 42 43 61 0
247 -42 -44 -62 0
247 42 44 62 0
248 -42 -45 -63 0
249 -43 -44 -64 0
250 -43 -45 -65 0
251 -44 -45 -66 0
251 44 45 66 0
253 -46 -48 -53 0
254 -46 -49 -54 0
255 -46 -50 -55 0
256 -46 -51 -56 0
256 46 51 56 0
257 -47 -48 -57 0
258 -47 -49 -58 0
258 47 49 58 0
259 -47 -50 -59 0
259 47 50 59 0
260 -47 -51 -60 0
261 -48 -49 -61 0
262 -48 -50 -62 0
263 -48 -51 -63 0
264 -49 -50 -64 0
265 -49 -51 -65 0
266 -50 -51 -66 0
267 -52 -53 -57 0
267 52 53 57 0
268 -52 -54 -58 0
269 -52 -55 -59 0
269 52 55 59 0
270 -52 -56 -60 0
270 52 56 60 0
271 -53 -54 -61 0
272 -53 -55 -62 0
273 -53 -56 -63 0
273 53 56 63 0
274 -54 -55 -64 0
275 -54 -56 -65 0
276 -55 -56 -66 0
276 55 56 66 0
277 -57 -58 -61 0
277 57 58 61 0
278 -57 -59 -62 0
279 -57 -60 -63 0
280 -58 -59 -64 0
281 -58 -60 -65 0
282 -59 -60 -66 0
283 -61 -62 -64 0
284 -61 -63 -65 0
285 -62 -63 -66 0
286 -64 -65 -66 0
-67 -203 -267 -286 0
-67 -203 -269 -284 0
-67 -203 -270 -283 0
-67 -203 -271 -282 0
-67 -203 -272 -281 0
-67 -203 -273 -280 0
-67 -203 -274 -279 0
-67 -203 -275 -278 0
-67 -203 -276 -277 0
-67 -204 -257 -286 0
-67 -204 -258 -285 0
-67 -204 -259 -284 0
-67 -204 -260 -283 0
-67 -204 -261 -282 0
-67 -204 -262 -281 0
-67 -204 -263 -280 0
-67 -204 -264 -279 0
-67 -204 -265 -278 0
-67 -204 -266 -277 0
-67 -205 -254 -285 0
-67 -205 -255 -284 0
-67 -205 -261 -276 0
-67 -205 -262 -275 0
-67 -205 -263 -274 0
-67 -205 -264 -273 0
-67 -205 -265 -272 0
-67 -205 -266 -271 0
-67 -206 -254 -282 0
-67 -206 -255 -281 0
-67 -206 -256 -280 0
-67 -206 -258 -276 0
-67 -206 -259 -275 0
-67 -206 -260 -274 0
-67 -206 -264 -270 0
-67 -206 -265 -269 0
-67 -206 -266 -268 0
-67 -207 -253 -282 0
-67 -207 -255 -279 0
-67 -207 -256 -278 0
-67 -207 -257 -276 0
-67 -207 -259 -273 0
-67 -207 -260 -272 0
-67 -207 -262 -270 0
-67 -207 -263 -269 0
-67 -207 -266 -267 0
-67 -208 -253 -281 0
-67 -208 -254 -279 0
-67 -208 -256 -277 0
-67 -208 -257 -275 0
-67 -208 -258 -273 0
-67 -208 -260 -271 0
-67 -208 -261 -270 0
-67 -208 -263 -268 0
-67 -208 -265 -267 0
-67 -209 -253 -280 0
-67 -209 -254 -278 0
-67 -209 -255 -277 0
-67 -209 -257 -274 0
-67 -209 -258 -272 0
-67 -209 -259 -271 0
-67 -209 -261 -269 0
-67 -209 -262 -268 0
-67 -209 -264 -267 0
-67 -210 -246 -282 0
-67 -210 -247 -281 0
-67 -210 -248 -280 0
-67 -210 -249 -279 0
-67 -210 -250 -278 0
-67 -210 -251 -277 0
-67 -211 -238 -286 0
-67 -211 -239 -285 0
-67 -211 -241 -283 0
-67 -211 -246 -276 0
-67 -211 -247 -275 0
-67 -211 -248 -274 0
-67 -211 -249 -273 0
-67 -211 -250 -272 0
-67 -211 -251 -271 0
-67 -212 -239 -282 0
-67 -212 -240 -281 0
-67 -212 -241 -280 0
-67 -212 -243 -276 0
-67 -212 -244 -275 0
-67 -212 -245 -274 0
-67 -212 -249 -270 0
-67 -212 -250 -269 0
-67 -212 -251 -268 0
-67 -213 -238 -282 0
-67 -213 -240 -279 0
-67 -213 -241 -278 0
-67 -213 -242 -276 0
-67 -213 -244 -273 0
-67 -213 -245 -272 0
-67 -213 -247 -270 0
-67 -213 -248 -269 0
-67 -213 -251 -267 0
-67 -214 -238 -281 0
-67 -214 -239 -279 0
-67 -214 -241 -277 0
-67 -214 -242 -275 0
-67 -214 -243 -273 0
-67 -214 -245 -271 0
-67 -214 -246 -270 0
-67 -214 -248 -268 0
-67 -214 -250 -267 0
-67 -215 -238 -280 0
-67 -215 -239 -278 0
-67 -215 -240 -277 0
-67 -215 -242 -274 0
-67 -215 -243 -272 0
-67 -215 -244 -271 0
-67 -215 -246 -269 0
-67 -215 -247 -268 0
-67 -215 -249 -267 0
-67 -216 -233 -286 0
-67 -216 -234 -285 0
-67 -216 -235 -284 0
-67 -216 -236 -283 0
-67 -216 -246 -266 0
-67 -216 -247 -265 0
-67 -216 -248 -264 0
-67 -216 -249 -263 0
-67 -216 -250 -262 0
-67 -216 -251 -261 0
-67 -217 -234 -282 0
-67 -217 -235 -281 0
-67 -217 -236 -280 0
-67 -217 -243 -266 0
-67 -217 -244 -265 0
-67 -217 -245 -264 0
-67 -217 -249 -260 0
-67 -217 -250 -259 0
-67 -217 -251 -258 0
-67 -218 -233 -282 0
-67 -218 -235 -279 0
-67 -218 -236 -278 0
-67 -218 -242 -266 0
-67 -218 -244 -263 0
-67 -218 -245 -262 0
-67 -218 -247 -260 0
-67 -218 -248 -259 0
-67 -218 -251 -257 0
-67 -219 -233 -281 0
-67 -219 -234 -279 0
-67 -219 -236 -277 0
-67 -219 -242 -265 0
-67 -219 -243 -263 0
-67 -219 -245 -261 0
-67 -219 -246 -260 0
-67 -219 -248 -258 0
-67 -219 -250 -257 0
-67 -220 -233 -280 0
-67 -220 -234 -278 0
-67 -220 -235 -277 0
-67 -220 -242 -264 0
-67 -220 -243 -262 0
-67 -220 -244 -261 0
-67 -220 -246 -259 0
-67 -220 -247 -258 0
-67 -220 -249 -257 0
-67 -221 -234 -276 0
-67 -221 -235 -275 0
-67 -221 -236 -274 0
-67 -221 -239 -266 0
-67 -221 -240 -265 0
-67 -221 -241 -264 0
-67 -221 -249 -256 0
-67 -221 -250 -255 0
-67 -221 -251 -254 0
-67 -222 -233 -276 0
-67 -222 -235 -273 0
-67 -222 -236 -272 0
-67 -222 -238 -266 0
-67 -222 -240 -263 0
-67 -222 -241 -262 0
-67 -222 -247 -256 0
-67 -222 -248 -255 0
-67 -222 -251 -253 0
-67 -223 -233 -275 0
-67 -223 -234 -273 0
-67 -223 -236 -271 0
-67 -223 -238 -265 0
-67 -223 -239 -263 0
-67 -223 -241 -261 0
-67 -223 -246 -256 0
-67 -223 -248 -254 0
-67 -223 -250 -253 0
-67 -224 -233 -274 0
-67 -224 -234 -272 0
-67 -224 -235 -271 0
-67 -224 -238 -264 0
-67 -224 -239 -262 0
-67 -224 -240 -261 0
-67 -224 -246 -255 0
-67 -224 -247 -254 0
-67 -224 -249 -253 0
-67 -225 -235 -270 0
-67 -225 -236 -269 0
-67 -225 -240 -260 0
-67 -225 -241 -259 0
-67 -225 -244 -256 0
-67 -225 -245 -255 0
-67 -226 -234 -270 0
-67 -226 -236 -268 0
-67 -226 -239 -260 0
-67 -226 -241 -258 0
-67 -226 -243 -256 0
-67 -226 -245 -254 0
-67 -227 -234 -269 0
-67 -227 -235 -268 0
-67 -227 -239 -259 0
-67 -227 -240 -258 0
-67 -227 -243 -255 0
-67 -227 -244 -254 0
-67 -228 -233 -270 0
-67 -228 -236 -267 0
-67 -228 -238 -260 0
-67 -228 -241 -257 0
-67 -228 -242 -256 0
-67 -228 -245 -253 0
-67 -229 -233 -269 0
-67 -229 -235 -267 0
-67 -229 -238 -259 0
-67 -229 -240 -257 0
-67 -229 -242 -255 0
-67 -229 -244 -253 0
-67 -230 -233 -268 0
-67 -230 -234 -267 0
-67 -230 -238 -258 0
-67 -230 -239 -257 0
-67 -230 -242 -254 0
-67 -230 -243 -253 0
-68 -175 -268 -285 0
-68 -175 -269 -284 0
-68 -175 -270 -283 0
-68 -175 -271 -282 0
-68 -175 -272 -281 0
-68 -175 -273 -280 0
-68 -175 -274 -279 0
-68 -175 -275 -278 0
-68 -175 -276 -277 0
-68 -176 -257 -286 0
-68 -176 -258 -285 0
-68 -176 -261 -282 0
-68 -176 -262 -281 0
-68 -176 -263 -280 0
-68 -176 -264 -279 0
-68 -176 -265 -278 0
-68 -176 -266 -277 0
-68 -177 -253 -286 0
-68 -177 -254 -285 0
-68 -177 -255 -284 0
-68 -177 -256 -283 0
-68 -177 -261 -276 0
-68 -177 -262 -275 0
-68 -177 -263 -274 0
-68 -177 -264 -273 0
-68 -177 -265 -272 0
-68 -177 -266 -271 0
-68 -178 -254 -282 0
-68 -178 -255 -281 0
-68 -178 -256 -280 0
-68 -178 -258 -276 0
-68 -178 -259 -275 0
-68 -178 -260 -274 0
-68 -178 -264 -270 0
-68 -178 -265 -269 0
-68 -178 -266 -268 0
-68 -179 -253 -282 0
-68 -179 -255 -279 0
-68 -179 -256 -278 0
-68 -179 -257 -276 0
-68 -179 -259 -273 0
-68 -179 -260 -272 0
-68 -179 -262 -270 0
-68 -179 -263 -269 0
-68 -179 -266 -267 0
-68 -180 -253 -281 0
-68 -180 -254 -279 0
-68 -180 -256 -277 0
-68 -180 -257 -275 0
-68 -180 -258 -273 0
-68 -180 -260 -271 0
-68 -180 -261 -270 0
-68 -180 -263 -268 0
-68 -180 -265 -267 0
-68 -181 -253 -280 0
-68 -181 -254 -278 0
-68 -181 -255 -277 0
-68 -181 -257 -274 0
-68 -181 -258 -272 0
-68 -181 -259 -271 0
-68 -181 -261 -269 0
-68 -181 -262 -268 0
-68 -181 -264 -267 0
-68 -182 -243 -285 0
-68 -182 -244 -284 0
-68 -182 -245 -283 0
-68 -182 -246 -282 0
-68 -182 -247 -281 0
-68 -182 -248 -280 0
-68 -182 -249 -279 0
-68 -182 -250 -278 0
-68 -182 -251 -277 0
-68 -183 -238 -286 0
-68 -183 -239 -285 0
-68 -183 -240 -284 0
-68 -183 -241 -283 0
-68 -183 -246 -276 0
-68 -183 -247 -275 0
-68 -183 -248 -274 0
-68 -183 -249 -273 0
-68 -183 -250 -272 0
-68 -183 -251 -271 0
-68 -184 -239 -282 0
-68 -184 -240 -281 0
-68 -184 -241 -280 0
-68 -184 -243 -276 0
-68 -184 -244 -275 0
-68 -184 -245 -274 0
-68 -184 -249 -270 0
-68 -184 -250 -269 0
-68 -184 -251 -268 0
-68 -185 -238 -282 0
-68 -185 -240 -279 0
-68 -185 -241 -278 0
-68 -185 -242 -276 0
-68 -185 -244 -273 0
-68 -185 -245 -272 0
-68 -185 -247 -270 0
-68 -185 -248 -269 0
-68 -185 -251 -267 0
-68 -186 -238 -281 0
-68 -186 -239 -279 0
-68 -186 -241 -277 0
-68 -186 -242 -275 0
-68 -186 -243 -273 0
-68 -186 -245 -271 0
-68 -186 -246 -270 0
-68 -186 -248 -268 0
-68 -186 -250 -267 0
-68 -187 -238 -280 0
-68 -187 -239 -278 0
-68 -187 -240 -277 0
-68 -187 -242 -274 0
-68 -187 -243 -272 0
-68 -187 -244 -271 0
-68 -187 -246 -269 0
-68 -187 -247 -268 0
-68 -187 -249 -267 0
-68 -188 -233 -286 0
-68 -188 -234 -285 0
-68 -188 -235 -284 0
-68 -188 -236 -283 0
-68 -188 -246 -266 0
-68 -188 -247 -265 0
-68 -188 -248 -264 0
-68 -188 -249 -263 0
-68 -188 -250 -262 0
-68 -188 -251 -261 0
-68 -189 -234 -282 0
-68 -189 -235 -281 0
-68 -189 -236 -280 0
-68 -189 -243 -266 0
-68 -189 -244 -265 0
-68 -189 -245 -264 0
-68 -189 -249 -260 0
-68 -189 -250 -259 0
-68 -189 -251 -258 0
-68 -190 -233 -282 0
-68 -190 -235 -279 0
-68 -190 -236 -278 0
-68 -190 -242 -266 0
-68 -190 -244 -263 0
-68 -190 -245 -262 0
-68 -190 -247 -260 0
-68 -190 -248 -259 0
-68 -190 -251 -257 0
-68 -191 -233 -281 0
-68 -191 -234 -279 0
-68 -191 -236 -277 0
-68 -191 -242 -265 0
-68 -191 -243 -263 0
-68 -191 -245 -261 0
-68 -191 -246 -260 0
-68 -191 -248 -258 0
-68 -191 -250 -257 0
-68 -192 -233 -280 0
-68 -192 -234 -278 0
-68 -192 -235 -277 0
-68 -192 -242 -264 0
-68 -192 -243 -262 0
-68 -192 -244 -261 0
-68 -192 -246 -259 0
-68 -192 -247 -258 0
-68 -192 -249 -257 0
-68 -193 -234 -276 0
-68 -193 -235 -275 0
-68 -193 -236 -274 0
-68 -193 -239 -266 0
-68 -193 -240 -265 0
-68 -193 -241 -264 0
-68 -193 -249 -256 0
-68 -193 -250 -255 0
-68 -193 -251 -254 0
-68 -194 -233 -276 0
-68 -194 -235 -273 0
-68 -194 -236 -272 0
-68 -194 -238 -266 0
-68 -194 -240 -263 0
-68 -194 -241 -262 0
-68 -194 -247 -256 0
-68 -194 -248 -255 0
-68 -194 -251 -253 0
-68 -195 -233 -275 0
-68 -195 -234 -273 0
-68 -195 -236 -271 0
-68 -195 -238 -265 0
-68 -195 -239 -263 0
-68 -195 -241 -261 0
-68 -195 -246 -256 0
-68 -195 -248 -254 0
-68 -195 -250 -253 0
-68 -196 -233 -274 0
-68 -196 -234 -272 0
-68 -196 -235 -271 0
-68 -196 -238 -264 0
-68 -196 -239 -262 0
-68 -196 -240 -261 0
-68 -196 -246 -255 0
-68 -196 -247 -254 0
-68 -196 -249 -253 0
-68 -197 -235 -270 0
-68 -197 -236 -269 0
-68 -197 -240 -260 0
-68 -197 -241 -259 0
-68 -197 -244 -256 0
-68 -197 -245 -255 0
-68 -198 -234 -270 0
-68 -198 -236 -268 0
-68 -198 -239 -260 0
-68 -198 -241 -258 0
-68 -198 -243 -256 0
-68 -198 -245 -254 0
-68 -199 -234 -269 0
-68 -199 -235 -268 0
-68 -199 -239 -259 0
-68 -199 -240 -258 0
-68 -199 -243 -255 0
-68 -199 -244 -254 0
-68 -200 -233 -270 0
-68 -200 -236 -267 0
-68 -200 -238 -260 0
-68 -200 -241 -257 0
-68 -200 -242 -256 0
-68 -200 -245 -253 0
-68 -201 -233 -269 0
-68 -201 -235 -267 0
-68 -201 -238 -259 0
-68 -201 -240 -257 0
-68 -201 -242 -255 0
-68 -201 -244 -253 0
-68 -202 -233 -268 0
-68 -202 -234 -267 0
-68 -202 -238 -258 0
-68 -202 -239 -257 0
-68 -202 -242 -254 0
-68 -202 -243 -253 0
-78 -146 -221 -286 0
-78 -146 -223 -284 0
-78 -146 -224 -283 0
-78 -146 -225 -282 0
-78 -146 -227 -280 0
-78 -146 -228 -279 0
-78 -146 -229 -278 0
-78 -147 -217 -286 0
-78 -147 -218 -285 0
-78 -147 -219 -284 0
-78 -147 -220 -283 0
-78 -147 -225 -276 0
-78 -147 -226 -275 0
-78 -147 -227 -274 0
-78 -147 -229 -272 0
-78 -148 -218 -282 0
-78 -148 -220 -280 0
-78 -148 -222 -276 0
-78 -148 -228 -270 0
-78 -148 -229 -269 0
-78 -149 -216 -285 0
-78 -149 -220 -278 0
-78 -149 -221 -276 0
-78 -149 -226 -270 0
-78 -149 -227 -269 0
-78 -149 -230 -267 0
-78 -150 -220 -277 0
-78 -150 -222 -273 0
-78 -151 -216 -283 0
-78 -151 -217 -280 0
-78 -151 -218 -278 0
-78 -151 -221 -274 0
-78 -151 -222 -272 0
-78 -151 -225 -269 0
-78 -151 -226 -268 0
-78 -152 -212 -286 0
-78 -152 -213 -285 0
-78 -152 -214 -284 0
-78 -152 -215 -283 0
-78 -152 -225 -266 0
-78 -152 -226 -265 0
-78 -152 -227 -264 0
-78 -152 -228 -263 0
-78 -152 -229 -262 0
-78 -152 -230 -261 0
-78 -153 -211 -286 0
-78 -153 -213 -282 0
-78 -153 -215 -280 0
-78 -153 -222 -266 0
-78 -153 -224 -264 0
-78 -154 -212 -282 0
-78 -154 -215 -278 0
-78 -154 -221 -266 0
-78 -154 -223 -263 0
-78 -155 -224 -261 0
-78 -156 -211 -283 0
-78 -156 -221 -264 0
-78 -156 -223 -261 0
-78 -157 -213 -276 0
-78 -157 -215 -274 0
-78 -157 -218 -266 0
-78 -157 -220 -264 0
-78 -157 -228 -256 0
-78 -157 -229 -255 0
-78 -158 -212 -276 0
-78 -158 -215 -272 0
-78 -158 -217 -266 0
-78 -158 -219 -263 0
-78 -158 -230 -253 0
-78 -159 -212 -275 0
-78 -159 -215 -271 0
-78 -159 -218 -263 0
-78 -159 -225 -256 0
-78 -159 -229 -253 0
-78 -160 -212 -274 0
-78 -160 -213 -272 0
-78 -160 -214 -271 0
-78 -160 -217 -264 0
-78 -160 -225 -255 0
-78 -161 -210 -282 0
-78 -161 -211 -276 0
-78 -161 -214 -270 0
-78 -161 -215 -269 0
-78 -161 -216 -266 0
-78 -161 -219 -260 0
-78 -161 -220 -259 0
-78 -161 -223 -256 0
-78 -161 -224 -255 0
-78 -162 -211 -275 0
-78 -162 -213 -270 0
-78 -162 -215 -268 0
-78 -162 -218 -260 0
-78 -162 -220 -258 0
-78 -162 -222 -256 0
-78 -162 -224 -254 0
-78 -163 -213 -269 0
-78 -163 -214 -268 0
-78 -163 -218 -259 0
-78 -163 -219 -258 0
-78 -163 -222 -255 0
-78 -163 -223 -254 0
-78 -164 -210 -279 0
-78 -164 -211 -273 0
-78 -164 -212 -270 0
-78 -164 -215 -267 0
-78 -164 -216 -263 0
-78 -164 -217 -260 0
-78 -164 -220 -257 0
-78 -164 -221 -256 0
-78 -164 -224 -253 0
-78 -165 -211 -272 0
-78 -165 -212 -269 0
-78 -165 -214 -267 0
-78 -165 -217 -259 0
-78 -165 -219 -257 0
-78 -165 -221 -255 0
-78 -165 -223 -253 0
-78 -166 -210 -277 0
-78 -166 -212 -268 0
-78 -166 -213 -267 0
-78 -166 -217 -258 0
-78 -166 -218 -257 0
-78 -166 -221 -254 0
-78 -166 -222 -253 0
-79 -140 -221 -286 0
-79 -140 -222 -285 0
-79 -140 -223 -284 0
-79 -140 -225 -282 0
-79 -140 -226 -281 0
-79 -140 -227 -280 0
-79 -140 -228 -279 0
-79 -141 -219 -284 0
-79 -141 -220 -283 0
-79 -141 -226 -275 0
-79 -141 -228 -273 0
-79 -141 -229 -272 0
-79 -141 -230 -271 0
-79 -142 -216 -286 0
-79 -142 -218 -282 0
-79 -142 -222 -276 0
-79 -142 -224 -274 0
-79 -142 -229 -269 0
-79 -142 -230 -268 0
-79 -143 -217 -282 0
-79 -143 -221 -276 0
-79 -143 -224 -272 0
-79 -143 -226 -270 0
-79 -144 -227 -268 0
-79 -145 -221 -274 0
-79 -145 -222 -272 0
-79 -145 -225 -269 0
-79 -145 -226 -268 0
-79 -152 -206 -286 0
-79 -152 -207 -285 0
-79 -152 -208 -284 0
-79 -152 -209 -283 0
-79 -152 -225 -251 0
-79 -152 -226 -250 0
-79 -152 -227 -249 0
-79 -152 -228 -248 0
-79 -152 -230 -246 0
-79 -153 -207 -282 0
-79 -153 -208 -281 0
-79 -153 -222 -251 0
-79 -154 -206 -282 0
-79 -154 -221 -251 0
-79 -154 -224 -247 0
-79 -154 -226 -245 0
-79 -155 -209 -277 0
-79 -155 -222 -248 0
-79 -155 -224 -246 0
-79 -155 -229 -242 0
-79 -156 -205 -283 0
-79 -156 -222 -247 0
-79 -156 -228 -242 0
-79 -157 -207 -276 0
-79 -157 -218 -251 0
-79 -157 -229 -240 0
-79 -158 -204 -285 0
-79 -158 -206 -276 0
-79 -158 -209 -272 0
-79 -158 -217 -251 0
-79 -158 -219 -248 0
-79 -158 -220 -247 0
-79 -159 -209 -271 0
-79 -159 -217 -250 0
-79 -159 -218 -248 0
-79 -159 -220 -246 0
-79 -160 -218 -247 0
-79 -160 -219 -246 0
-79 -160 -226 -239 0
-79 -161 -205 -276 0
-79 -161 -208 -270 0
-79 -161 -209 -269 0
-79 -161 -216 -251 0
-79 -161 -219 -245 0
-79 -161 -220 -244 0
-79 -161 -223 -241 0
-79 -161 -224 -240 0
-79 -162 -205 -275 0
-79 -162 -207 -270 0
-79 -162 -209 -268 0
-79 -162 -218 -245 0
-79 -162 -220 -243 0
-79 -162 -224 -239 0
-79 -163 -204 -280 0
-79 -163 -205 -274 0
-79 -163 -207 -269 0
-79 -163 -208 -268 0
-79 -163 -216 -249 0
-79 -163 -218 -244 0
-79 -163 -219 -243 0
-79 -163 -222 -240 0
-79 -163 -223 -239 0
-79 -164 -204 -279 0
-79 -164 -205 -273 0
-79 -164 -206 -270 0
-79 -164 -209 -267 0
-79 -164 -217 -245 0
-79 -164 -220 -242 0
-79 -164 -221 -241 0
-79 -164 -224 -238 0
-79 -165 -204 -278 0
-79 -165 -206 -269 0
-79 -165 -208 -267 0
-79 -165 -217 -244 0
-79 -165 -219 -242 0
-79 -165 -221 -240 0
-79 -166 -204 -277 0
-79 -166 -205 -271 0
-79 -166 -206 -268 0
-79 -166 -207 -267 0
-79 -166 -216 -246 0
-79 -166 -217 -243 0
-79 -166 -218 -242 0
-79 -166 -221 -239 0
-79 -166 -222 -238 0
-80 -139 -222 -285 0
-80 -139 -223 -284 0
-80 -139 -227 -280 0
-80 -139 -228 -279 0
-80 -139 -230 -277 0
-80 -141 -212 -286 0
-80 -141 -214 -284 0
-80 -141 -225 -266 0
-80 -141 -226 -265 0
-80 -141 -227 -264 0
-80 -141 -228 -263 0
-80 -141 -229 -262 0
-80 -141 -230 -261 0
-80 -142 -213 -282 0
-80 -142 -222 -266 0
-80 -142 -224 -264 0
-80 -142 -229 -259 0
-80 -142 -230 -258 0
-80 -143 -223 -263 0
-80 -143 -224 -262 0
-80 -144 -212 -281 0
-80 -144 -224 -261 0
-80 -144 -229 -257 0
-80 -145 -211 -283 0
-80 -145 -212 -280 0
-80 -145 -221 -264 0
-80 -147 -206 -286 0
-80 -147 -207 -285 0
-80 -147 -209 -283 0
-80 -147 -225 -251 0
-80 -147 -226 -250 0
-80 -147 -227 -249 0
-80 -147 -228 -248 0
-80 -147 -229 -247 0
-80 -148 -207 -282 0
-80 -148 -208 -281 0
-80 -148 -222 -251 0
-80 -148 -224 -249 0
-80 -148 -229 -244 0
-80 -148 -230 -243 0
-80 -149 -206 -282 0
-80 -149 -208 -279 0
-80 -149 -209 -278 0
-80 -150 -227 -243 0
-80 -151 -208 -277 0
-80 -151 -222 -247 0
-80 -151 -223 -246 0
-80 -151 -226 -243 0
-80 -157 -209 -264 0
-80 -157 -213 -251 0
-80 -157 -215 -249 0
-80 -157 -229 -235 0
-80 -158 -208 -263 0
-80 -158 -214 -248 0
-80 -158 -215 -247 0
-80 -158 -227 -235 0
-80 -158 -230 -233 0
-80 -159 -207 -263 0
-80 -159 -212 -250 0
-80 -159 -213 -248 0
-80 -159 -229 -233 0
-80 -160 -206 -264 0
-80 -160 -212 -249 0
-80 -160 -214 -246 0
-80 -160 -225 -235 0
-80 -161 -205 -266 0
-80 -161 -208 -260 0
-80 -161 -209 -259 0
-80 -161 -211 -251 0
-80 -161 -214 -245 0
-80 -161 -215 -244 0
-80 -161 -223 -236 0
-80 -161 -224 -235 0
-80 -162 -205 -265 0
-80 -162 -207 -260 0
-80 -162 -209 -258 0
-80 -162 -213 -245 0
-80 -162 -215 -243 0
-80 -162 -222 -236 0
-80 -162 -224 -234 0
-80 -163 -203 -280 0
-80 -163 -205 -264 0
-80 -163 -207 -259 0
-80 -163 -208 -258 0
-80 -163 -213 -244 0
-80 -163 -214 -243 0
-80 -163 -222 -235 0
-80 -163 -223 -234 0
-80 -164 -205 -263 0
-80 -164 -209 -257 0
-80 -164 -212 -245 0
-80 -164 -215 -242 0
-80 -164 -221 -236 0
-80 -164 -224 -233 0
-80 -165 -205 -262 0
-80 -165 -206 -259 0
-80 -165 -208 -257 0
-80 -165 -211 -247 0
-80 -165 -212 -244 0
-80 -165 -214 -242 0
-80 -165 -221 -235 0
-80 -165 -223 -233 0
-80 -166 -203 -277 0
-80 -166 -205 -261 0
-80 -166 -206 -258 0
-80 -166 -207 -257 0
-80 -166 -212 -243 0
-80 -166 -213 -242 0
-80 -166 -221 -234 0
-81 -139 -217 -286 0
-81 -139 -219 -284 0
-81 -139 -220 -283 0
-81 -139 -226 -275 0
-81 -139 -228 -273 0
-81 -140 -212 -286 0
-81 -140 -213 -285 0
-81 -140 -215 -283 0
-81 -140 -225 -266 0
-81 -140 -228 -263 0
-81 -140 -229 -262 0
-81 -142 -213 -276 0
-81 -142 -215 -274 0
-81 -142 -218 -266 0
-81 -142 -220 -264 0
-81 -142 -230 -254 0
-81 -143 -212 -276 0
-81 -143 -214 -273 0
-81 -143 -215 -272 0
-81 -143 -217 -266 0
-81 -143 -219 -263 0
-81 -143 -226 -256 0
-81 -143 -230 -253 0
-81 -144 -215 -271 0
-81 -144 -217 -265 0
-81 -144 -220 -261 0
-81 -144 -229 -253 0
-81 -145 -210 -283 0
-81 -145 -212 -274 0
-81 -145 -214 -271 0
-81 -145 -217 -264 0
-81 -145 -219 -261 0
-81 -145 -225 -255 0
-81 -146 -206 -286 0
-81 -146 -207 -285 0
-81 -146 -209 -283 0
-81 -146 -225 -251 0
-81 -146 -226 -250 0
-81 -146 -227 -249 0
-81 -146 -228 -248 0
-81 -146 -229 -247 0
-81 -146 -230 -246 0
-81 -148 -207 -276 0
-81 -148 -228 -241 0
-81 -148 -229 -240 0
-81 -149 -206 -276 0
-81 -149 -208 -273 0
-81 -149 -217 -251 0
-81 -149 -220 -247 0
-81 -149 -226 -241 0
-81 -149 -230 -238 0
-81 -150 -207 -273 0
-81 -150 -209 -271 0
-81 -150 -218 -248 0
-81 -150 -220 -246 0
-81 -150 -225 -241 0
-81 -150 -227 -239 0
-81 -151 -206 -274 0
-81 -151 -208 -271 0
-81 -153 -203 -286 0
-81 -153 -208 -265 0
-81 -153 -214 -250 0
-81 -153 -215 -249 0
-81 -153 -228 -236 0
-81 -153 -229 -235 0
-81 -153 -230 -234 0
-81 -154 -214 -248 0
-81 -154 -230 -233 0
-81 -155 -207 -263 0
-81 -155 -209 -261 0
-81 -155 -212 -250 0
-81 -155 -215 -246 0
-81 -155 -227 -234 0
-81 -156 -203 -283 0
-81 -156 -206 -264 0
-81 -156 -208 -261 0
-81 -156 -212 -249 0
-81 -156 -213 -247 0
-81 -156 -214 -246 0
-81 -156 -225 -235 0
-81 -156 -226 -234 0
-81 -156 -228 -233 0
-81 -161 -203 -276 0
-81 -161 -204 -266 0
-81 -161 -208 -256 0
-81 -161 -209 -255 0
-81 -161 -210 -251 0
-81 -161 -214 -241 0
-81 -161 -215 -240 0
-81 -161 -219 -236 0
-81 -161 -220 -235 0
-81 -162 -207 -256 0
-81 -162 -209 -254 0
-81 -162 -213 -241 0
-81 -162 -215 -239 0
-81 -162 -218 -236 0
-81 -162 -220 -234 0
-81 -163 -203 -274 0
-81 -163 -204 -264 0
-81 -163 -207 -255 0
-81 -163 -208 -254 0
-81 -163 -213 -240 0
-81 -163 -214 -239 0
-81 -163 -218 -235 0
-81 -163 -219 -234 0
-81 -164 -204 -263 0
-81 -164 -206 -256 0
-81 -164 -209 -253 0
-81 -164 -210 -248 0
-81 -164 -212 -241 0
-81 -164 -215 -238 0
-81 -164 -217 -236 0
-81 -164 -220 -233 0
-81 -165 -203 -272 0
-81 -165 -204 -262 0
-81 -165 -206 -255 0
-81 -165 -208 -253 0
-81 -165 -210 -247 0
-81 -165 -212 -240 0
-81 -165 -214 -238 0
-81 -165 -217 -235 0
-81 -165 -219 -233 0
-81 -166 -206 -254 0
-81 -166 -207 -253 0
-81 -166 -212 -239 0
-81 -166 -213 -238 0
-81 -166 -217 -234 0
-86 -146 -193 -286 0
-86 -146 -196 -283 0
-86 -146 -197 -282 0
-86 -146 -200 -279 0
-86 -146 -201 -278 0
-86 -146 -202 -277 0
-86 -147 -191 -284 0
-86 -147 -192 -283 0
-86 -147 -197 -276 0
-86 -147 -199 -274 0
-86 -147 -200 -273 0
-86 -147 -201 -272 0
-86 -148 -190 -282 0
-86 -148 -194 -276 0
-86 -148 -195 -275 0
-86 -148 -200 -270 0
-86 -148 -201 -269 0
-86 -149 -189 -282 0
-86 -149 -191 -279 0
-86 -149 -193 -276 0
-86 -149 -202 -267 0
-86 -150 -197 -270 0
-86 -150 -199 -268 0
-86 -151 -189 -280 0
-86 -151 -194 -272 0
-86 -151 -195 -271 0
-86 -151 -197 -269 0
-86 -151 -198 -268 0
-86 -152 -184 -286 0
-86 -152 -185 -285 0
-86 -152 -197 -266 0
-86 -152 -200 -263 0
-86 -152 -201 -262 0
-86 -152 -202 -261 0
-86 -153 -185 -282 0
-86 -153 -195 -265 0
-86 -153 -200 -260 0
-86 -153 -201 -259 0
-86 -153 -202 -258 0
-86 -154 -184 -282 0
-86 -154 -186 -279 0
-86 -154 -195 -263 0
-86 -155 -183 -284 0
-86 -155 -184 -281 0
-86 -155 -187 -277 0
-86 -155 -196 -261 0
-86 -155 -199 -258 0
-86 -156 -183 -283 0
-86 -156 -193 -264 0
-86 -156 -194 -262 0
-86 -156 -195 -261 0
-86 -156 -197 -259 0
-86 -156 -198 -258 0
-86 -156 -200 -257 0
-86 -157 -185 -276 0
-86 -157 -186 -275 0
-86 -157 -187 -274 0
-86 -157 -190 -266 0
-86 -157 -200 -256 0
-86 -157 -201 -255 0
-86 -157 -202 -254 0
-86 -158 -187 -272 0
-86 -158 -189 -266 0
-86 -158 -198 -256 0
-86 -158 -199 -255 0
-86 -158 -202 -253 0
-86 -159 -185 -273 0
-86 -159 -192 -261 0
-86 -159 -197 -256 0
-86 -159 -199 -254 0
-86 -159 -201 -253 0
-86 -160 -184 -274 0
-86 -160 -197 -255 0
-86 -160 -198 -254 0
-86 -160 -200 -253 0
-86 -161 -182 -282 0
-86 -161 -183 -276 0
-86 -161 -186 -270 0
-86 -161 -187 -269 0
-86 -161 -188 -266 0
-86 -161 -191 -260 0
-86 -161 -192 -259 0
-86 -161 -195 -256 0
-86 -161 -196 -255 0
-86 -162 -182 -281 0
-86 -162 -183 -275 0
-86 -162 -185 -270 0
-86 -162 -187 -268 0
-86 -162 -188 -265 0
-86 -162 -190 -260 0
-86 -162 -192 -258 0
-86 -162 -194 -256 0
-86 -162 -196 -254 0
-86 -163 -182 -280 0
-86 -163 -183 -274 0
-86 -163 -185 -269 0
-86 -163 -186 -268 0
-86 -163 -188 -264 0
-86 -163 -190 -259 0
-86 -163 -191 -258 0
-86 -163 -194 -255 0
-86 -163 -195 -254 0
-86 -164 -182 -279 0
-86 -164 -183 -273 0
-86 -164 -184 -270 0
-86 -164 -187 -267 0
-86 -164 -188 -263 0
-86 -164 -189 -260 0
-86 -164 -192 -257 0
-86 -164 -193 -256 0
-86 -164 -196 -253 0
-86 -165 -182 -278 0
-86 -165 -183 -272 0
-86 -165 -184 -269 0
-86 -165 -186 -267 0
-86 -165 -188 -262 0
-86 -165 -189 -259 0
-86 -165 -191 -257 0
-86 -165 -193 -255 0
-86 -165 -195 -253 0
-86 -166 -183 -271 0
-86 -166 -184 -268 0
-86 -166 -185 -267 0
-86 -166 -188 -261 0
-86 -166 -189 -258 0
-86 -166 -190 -257 0
-86 -166 -193 -254 0
-86 -166 -194 -253 0
-87 -140 -194 -285 0
-87 -140 -198 -281 0
-87 -140 -200 -279 0
-87 -141 -189 -286 0
-87 -141 -190 -285 0
-87 -141 -191 -284 0
-87 -141 -197 -276 0
-87 -141 -198 -275 0
-87 -141 -199 -274 0
-87 -141 -201 -272 0
-87 -141 -202 -271 0
-87 -142 -188 -286 0
-87 -142 -191 -281 0
-87 -142 -194 -276 0
-87 -142 -196 -274 0
-87 -142 -201 -269 0
-87 -142 -202 -268 0
-87 -143 -193 -276 0
-87 -143 -196 -272 0
-87 -143 -199 -269 0
-87 -143 -202 -267 0
-87 -144 -192 -277 0
-87 -144 -196 -271 0
-87 -145 -189 -280 0
-87 -145 -190 -278 0
-87 -145 -193 -274 0
-87 -145 -195 -271 0
-87 -145 -197 -269 0
-87 -145 -198 -268 0
-87 -145 -200 -267 0
-87 -152 -178 -286 0
-87 -152 -179 -285 0
-87 -152 -180 -284 0
-87 -152 -181 -283 0
-87 -152 -197 -251 0
-87 -152 -198 -250 0
-87 -152 -199 -249 0
-87 -152 -200 -248 0
-87 -152 -201 -247 0
-87 -153 -181 -280 0
-87 -154 -177 -285 0
-87 -154 -181 -278 0
-87 -154 -193 -251 0
-87 -154 -195 -248 0
-87 -154 -198 -245 0
-87 -155 -177 -284 0
-87 -155 -181 -277 0
-87 -155 -193 -250 0
-87 -155 -194 -248 0
-87 -155 -196 -246 0
-87 -155 -197 -245 0
-87 -155 -199 -243 0
-87 -156 -179 -278 0
-87 -156 -195 -246 0
-87 -157 -179 -276 0
-87 -157 -181 -274 0
-87 -157 -191 -250 0
-87 -157 -192 -249 0
-87 -157 -200 -241 0
-87 -158 -178 -276 0
-87 -158 -189 -251 0
-87 -158 -198 -241 0
-87 -159 -178 -275 0
-87 -159 -189 -250 0
-87 -159 -192 -246 0
-87 -159 -197 -241 0
-87 -160 -178 -274 0
-87 -160 -190 -247 0
-87 -160 -191 -246 0
-87 -160 -197 -240 0
-87 -160 -200 -238 0
-87 -161 -176 -282 0
-87 -161 -177 -276 0
-87 -161 -180 -270 0
-87 -161 -181 -269 0
-87 -161 -188 -251 0
-87 -161 -191 -245 0
-87 -161 -192 -244 0
-87 -161 -195 -241 0
-87 -161 -196 -240 0
-87 -162 -177 -275 0
-87 -162 -179 -270 0
-87 -162 -181 -268 0
-87 -162 -188 -250 0
-87 -162 -190 -245 0
-87 -162 -194 -241 0
-87 -163 -176 -280 0
-87 -163 -177 -274 0
-87 -163 -179 -269 0
-87 -163 -180 -268 0
-87 -163 -188 -249 0
-87 -163 -190 -244 0
-87 -163 -191 -243 0
-87 -163 -194 -240 0
-87 -163 -195 -239 0
-87 -164 -177 -273 0
-87 -164 -178 -270 0
-87 -164 -181 -267 0
-87 -164 -188 -248 0
-87 -164 -189 -245 0
-87 -164 -192 -242 0
-87 -164 -193 -241 0
-87 -164 -196 -238 0
-87 -165 -176 -278 0
-87 -165 -178 -269 0
-87 -165 -180 -267 0
-87 -165 -188 -247 0
-87 -165 -189 -244 0
-87 -165 -191 -242 0
-87 -165 -193 -240 0
-87 -165 -195 -238 0
-87 -166 -176 -277 0
-87 -166 -177 -271 0
-87 -166 -178 -268 0
-87 -166 -179 -267 0
-87 -166 -188 -246 0
-87 -166 -189 -243 0
-87 -166 -193 -239 0
-87 -166 -194 -238 0
-88 -139 -193 -286 0
-88 -139 -195 -284 0
-88 -139 -196 -283 0
-88 -139 -197 -282 0
-88 -139 -198 -281 0
-88 -139 -202 -277 0
-88 -141 -185 -285 0
-88 -141 -186 -284 0
-88 -141 -187 -283 0
-88 -141 -197 -266 0
-88 -141 -198 -265 0
-88 -141 -199 -264 0
-88 -141 -200 -263 0
-88 -141 -201 -262 0
-88 -141 -202 -261 0
-88 -142 -194 -266 0
-88 -142 -200 -260 0
-88 -142 -201 -259 0
-88 -143 -184 -282 0
-88 -143 -187 -278 0
-88 -143 -193 -266 0
-88 -143 -195 -263 0
-88 -143 -196 -262 0
-88 -143 -198 -260 0
-88 -143 -199 -259 0
-88 -143 -202 -257 0
-88 -144 -184 -281 0
-88 -144 -187 -277 0
-88 -144 -197 -260 0
-88 -145 -197 -259 0
-88 -145 -200 -257 0
-88 -147 -178 -286 0
-88 -147 -179 -285 0
-88 -147 -197 -251 0
-88 -147 -198 -250 0
-88 -147 -199 -249 0
-88 -147 -201 -247 0
-88 -148 -179 -282 0
-88 -148 -194 -251 0
-88 -148 -201 -244 0
-88 -148 -202 -243 0
-88 -149 -178 -282 0
-88 -149 -193 -251 0
-88 -149 -195 -248 0
-88 -149 -198 -245 0
-88 -150 -177 -284 0
-88 -150 -178 -281 0
-88 -150 -181 -277 0
-88 -150 -193 -250 0
-88 -150 -197 -245 0
-88 -150 -199 -243 0
-88 -151 -177 -283 0
-88 -151 -178 -280 0
-88 -151 -180 -277 0
-88 -151 -195 -246 0
-88 -151 -197 -244 0
-88 -157 -175 -286 0
-88 -157 -179 -266 0
-88 -157 -181 -264 0
-88 -157 -185 -251 0
-88 -157 -201 -235 0
-88 -158 -178 -266 0
-88 -158 -184 -251 0
-88 -158 -186 -248 0
-88 -158 -198 -236 0
-88 -158 -199 -235 0
-88 -158 -202 -233 0
-88 -159 -179 -263 0
-88 -159 -184 -250 0
-88 -159 -185 -248 0
-88 -159 -197 -236 0
-88 -159 -199 -234 0
-88 -160 -178 -264 0
-88 -160 -184 -249 0
-88 -160 -185 -247 0
-88 -160 -186 -246 0
-88 -160 -197 -235 0
-88 -160 -198 -234 0
-88 -161 -175 -282 0
-88 -161 -177 -266 0
-88 -161 -180 -260 0
-88 -161 -181 -259 0
-88 -161 -183 -251 0
-88 -161 -186 -245 0
-88 -161 -187 -244 0
-88 -161 -195 -236 0
-88 -161 -196 -235 0
-88 -162 -177 -265 0
-88 -162 -179 -260 0
-88 -162 -181 -258 0
-88 -162 -183 -250 0
-88 -162 -185 -245 0
-88 -162 -187 -243 0
-88 -162 -194 -236 0
-88 -162 -196 -234 0
-88 -163 -175 -280 0
-88 -163 -177 -264 0
-88 -163 -179 -259 0
-88 -163 -180 -258 0
-88 -163 -183 -249 0
-88 -163 -185 -244 0
-88 -163 -186 -243 0
-88 -163 -194 -235 0
-88 -163 -195 -234 0
-88 -164 -177 -263 0
-88 -164 -178 -260 0
-88 -164 -181 -257 0
-88 -164 -183 -248 0
-88 -164 -184 -245 0
-88 -164 -187 -242 0
-88 -164 -193 -236 0
-88 -164 -196 -233 0
-88 -165 -177 -262 0
-88 -165 -178 -259 0
-88 -165 -180 -257 0
-88 -165 -183 -247 0
-88 -165 -184 -244 0
-88 -165 -186 -242 0
-88 -165 -193 -235 0
-88 -165 -195 -233 0
-88 -166 -175 -277 0
-88 -166 -177 -261 0
-88 -166 -178 -258 0
-88 -166 -179 -257 0
-88 -166 -183 -246 0
-88 -166 -184 -243 0
-88 -166 -185 -242 0
-88 -166 -193 -234 0
-88 -166 -194 -233 0
-89 -139 -189 -286 0
-89 -139 -190 -285 0
-89 -139 -191 -284 0
-89 -139 -192 -283 0
-89 -139 -197 -276 0
-89 -139 -198 -275 0
-89 -139 -199 -274 0
-89 -139 -201 -272 0
-89 -139 -202 -271 0
-89 -140 -184 -286 0
-89 -140 -185 -285 0
-89 -140 -186 -284 0
-89 -140 -187 -283 0
-89 -140 -197 -266 0
-89 -140 -198 -265 0
-89 -140 -199 -264 0
-89 -140 -202 -261 0
-89 -142 -182 -286 0
-89 -142 -185 -276 0
-89 -142 -187 -274 0
-89 -142 -190 -266 0
-89 -142 -200 -256 0
-89 -143 -184 -276 0
-89 -143 -189 -266 0
-89 -143 -192 -262 0
-89 -144 -184 -275 0
-89 -144 -187 -271 0
-89 -144 -190 -263 0
-89 -144 -192 -261 0
-89 -144 -197 -256 0
-89 -145 -182 -283 0
-89 -145 -184 -274 0
-89 -145 -190 -262 0
-89 -145 -191 -261 0
-89 -145 -200 -253 0
-89 -146 -178 -286 0
-89 -146 -180 -284 0
-89 -146 -181 -283 0
-89 -146 -197 -251 0
-89 -146 -200 -248 0
-89 -146 -201 -247 0
-89 -146 -202 -246 0
-89 -148 -176 -286 0
-89 -148 -179 -276 0
-89 -148 -180 -275 0
-89 -148 -181 -274 0
-89 -148 -190 -251 0
-89 -148 -191 -250 0
-89 -148 -202 -239 0
-89 -149 -178 -276 0
-89 -149 -180 -273 0
-89 -149 -181 -272 0
-89 -149 -189 -251 0
-89 -149 -198 -241 0
-89 -149 -202 -238 0
-89 -150 -178 -275 0
-89 -150 -189 -250 0
-89 -150 -192 -246 0
-89 -150 -201 -238 0
-89 -151 -178 -274 0
-89 -151 -179 -272 0
-89 -151 -190 -247 0
-89 -151 -191 -246 0
-89 -151 -197 -240 0
-89 -151 -198 -239 0
-89 -153 -179 -266 0
-89 -153 -180 -265 0
-89 -153 -181 -264 0
-89 -153 -185 -251 0
-89 -153 -201 -235 0
-89 -154 -175 -285 0
-89 -154 -178 -266 0
-89 -154 -180 -263 0
-89 -154 -181 -262 0
-89 -154 -184 -251 0
-89 -154 -186 -248 0
-89 -154 -187 -247 0
-89 -154 -202 -233 0
-89 -155 -175 -284 0
-89 -155 -179 -263 0
-89 -155 -181 -261 0
-89 -155 -184 -250 0
-89 -155 -187 -246 0
-89 -155 -199 -234 0
-89 -155 -201 -233 0
-89 -156 -175 -283 0
-89 -156 -178 -264 0
-89 -156 -180 -261 0
-89 -156 -186 -246 0
-89 -156 -197 -235 0
-89 -161 -175 -276 0
-89 -161 -176 -266 0
-89 -161 -180 -256 0
-89 -161 -181 -255 0
-89 -161 -182 -251 0
-89 -161 -186 -241 0
-89 -161 -187 -240 0
-89 -161 -191 -236 0
-89 -161 -192 -235 0
-89 -162 -175 -275 0
-89 -162 -179 -256 0
-89 -162 -181 -254 0
-89 -162 -182 -250 0
-89 -162 -185 -241 0
-89 -162 -187 -239 0
-89 -162 -190 -236 0
-89 -162 -192 -234 0
-89 -163 -176 -264 0
-89 -163 -179 -255 0
-89 -163 -180 -254 0
-89 -163 -182 -249 0
-89 -163 -185 -240 0
-89 -163 -186 -239 0
-89 -163 -190 -235 0
-89 -163 -191 -234 0
-89 -164 -176 -263 0
-89 -164 -178 -256 0
-89 -164 -181 -253 0
-89 -164 -182 -248 0
-89 -164 -184 -241 0
-89 -164 -187 -238 0
-89 -164 -189 -236 0
-89 -164 -192 -233 0
-89 -165 -178 -255 0
-89 -165 -180 -253 0
-89 -165 -182 -247 0
-89 -165 -184 -240 0
-89 -165 -186 -238 0
-89 -165 -189 -235 0
-89 -166 -175 -271 0
-89 -166 -178 -254 0
-89 -166 -179 -253 0
-89 -166 -182 -246 0
-89 -166 -184 -239 0
-89 -166 -185 -238 0
-89 -166 -189 -234 0
-94 -152 -171 -286 0
-94 -152 -172 -285 0
-94 -152 -173 -284 0
-94 -152 -174 -283 0
-94 -153 -174 -280 0
-94 -154 -170 -285 0
-94 -154 -171 -282 0
-94 -154 -173 -279 0
-94 -154 -174 -278 0
-94 -155 -170 -284 0
-94 -155 -171 -281 0
-94 -155 -174 -277 0
-94 -155 -193 -229 0
-94 -155 -197 -224 0
-94 -155 -199 -222 0
-94 -156 -170 -283 0
-94 -156 -171 -280 0
-94 -156 -172 -278 0
-94 -156 -173 -277 0
-94 -157 -169 -286 0
-94 -157 -172 -276 0
-94 -157 -173 -275 0
-94 -157 -174 -274 0
-94 -157 -191 -229 0
-94 -158 -169 -285 0
-94 -158 -171 -276 0
-94 -158 -173 -273 0
-94 -158 -174 -272 0
-94 -158 -202 -217 0
-94 -159 -171 -275 0
-94 -159 -172 -273 0
-94 -159 -174 -271 0
-94 -160 -169 -283 0
-94 -160 -171 -274 0
-94 -160 -172 -272 0
-94 -160 -173 -271 0
-94 -160 -191 -225 0
-94 -161 -169 -282 0
-94 -161 -170 -276 0
-94 -161 -173 -270 0
-94 -161 -174 -269 0
-94 -161 -191 -224 0
-94 -161 -192 -223 0
-94 -161 -196 -219 0
-94 -161 -202 -216 0
-94 -162 -169 -281 0
-94 -162 -170 -275 0
-94 -162 -172 -270 0
-94 -162 -174 -268 0
-94 -162 -188 -229 0
-94 -162 -194 -220 0
-94 -162 -196 -218 0
-94 -163 -169 -280 0
-94 -163 -170 -274 0
-94 -163 -172 -269 0
-94 -163 -173 -268 0
-94 -163 -188 -228 0
-94 -163 -190 -223 0
-94 -163 -191 -222 0
-94 -163 -194 -219 0
-94 -163 -195 -218 0
-94 -164 -169 -279 0
-94 -164 -170 -273 0
-94 -164 -171 -270 0
-94 -164 -174 -267 0
-94 -164 -188 -227 0
-94 -164 -189 -224 0
-94 -164 -192 -221 0
-94 -164 -193 -220 0
-94 -164 -196 -217 0
-94 -165 -169 -278 0
-94 -165 -170 -272 0
-94 -165 -171 -269 0
-94 -165 -173 -267 0
-94 -165 -189 -223 0
-94 -165 -193 -219 0
-94 -165 -195 -217 0
-94 -166 -169 -277 0
-94 -166 -170 -271 0
-94 -166 -171 -268 0
-94 -166 -172 -267 0
-94 -166 -189 -222 0
-94 -166 -190 -221 0
-94 -166 -197 -216 0
-95 -147 -171 -286 0
-95 -147 -172 -285 0
-95 -147 -173 -284 0
-95 -147 -174 -283 0
-95 -148 -170 -286 0
-95 -148 -173 -281 0
-95 -148 -174 -280 0
-95 -149 -170 -285 0
-95 -149 -171 -282 0
-95 -149 -173 -279 0
-95 -149 -174 -278 0
-95 -150 -170 -284 0
-95 -150 -171 -281 0
-95 -150 -172 -279 0
-95 -150 -174 -277 0
-95 -150 -199 -222 0
-95 -151 -171 -280 0
-95 -151 -172 -278 0
-95 -151 -173 -277 0
-95 -151 -198 -222 0
-95 -157 -168 -286 0
-95 -157 -172 -266 0
-95 -157 -174 -264 0
-95 -158 -168 -285 0
-95 -158 -171 -266 0
-95 -158 -173 -263 0
-95 -158 -174 -262 0
-95 -159 -168 -284 0
-95 -159 -171 -265 0
-95 -160 -168 -283 0
-95 -160 -171 -264 0
-95 -160 -173 -261 0
-95 -161 -168 -282 0
-95 -161 -170 -266 0
-95 -161 -173 -260 0
-95 -161 -174 -259 0
-95 -161 -186 -224 0
-95 -161 -195 -215 0
-95 -161 -196 -214 0
-95 -162 -168 -281 0
-95 -162 -170 -265 0
-95 -162 -172 -260 0
-95 -162 -174 -258 0
-95 -162 -194 -215 0
-95 -162 -196 -213 0
-95 -163 -168 -280 0
-95 -163 -170 -264 0
-95 -163 -172 -259 0
-95 -163 -173 -258 0
-95 -163 -183 -228 0
-95 -163 -186 -222 0
-95 -163 -194 -214 0
-95 -163 -195 -213 0
-95 -164 -168 -279 0
-95 -164 -170 -263 0
-95 -164 -171 -260 0
-95 -164 -174 -257 0
-95 -164 -184 -224 0
-95 -164 -187 -221 0
-95 -164 -193 -215 0
-95 -164 -196 -212 0
-95 -165 -168 -278 0
-95 -165 -170 -262 0
-95 -165 -171 -259 0
-95 -165 -173 -257 0
-95 -165 -184 -223 0
-95 -165 -193 -214 0
-95 -165 -195 -212 0
-95 -166 -168 -277 0
-95 -166 -170 -261 0
-95 -166 -171 -258 0
-95 -166 -172 -257 0
-95 -166 -184 -222 0
-95 -166 -193 -213 0
-95 -166 -194 -212 0
-96 -146 -171 -286 0
-96 -146 -172 -285 0
-96 -146 -174 -283 0
-96 -146 -198 -229 0
-96 -146 -201 -226 0
-96 -148 -169 -286 0
-96 -148 -172 -276 0
-96 -148 -174 -274 0
-96 -148 -200 -220 0
-96 -148 -202 -218 0
-96 -149 -169 -285 0
-96 -149 -171 -276 0
-96 -149 -173 -273 0
-96 -149 -174 -272 0
-96 -149 -202 -217 0
-96 -150 -169 -284 0
-96 -150 -171 -275 0
-96 -150 -172 -273 0
-96 -150 -174 -271 0
-96 -150 -199 -218 0
-96 -151 -171 -274 0
-96 -151 -172 -272 0
-96 -151 -173 -271 0
-96 -153 -168 -286 0
-96 -153 -172 -266 0
-96 -153 -173 -265 0
-96 -153 -174 -264 0
-96 -153 -202 -213 0
-96 -154 -168 -285 0
-96 -154 -171 -266 0
-96 -154 -173 -263 0
-96 -154 -198 -215 0
-96 -154 -202 -212 0
-96 -155 -168 -284 0
-96 -155 -171 -265 0
-96 -155 -172 -263 0
-96 -155 -197 -215 0
-96 -155 -199 -213 0
-96 -156 -168 -283 0
-96 -156 -171 -264 0
-96 -156 -172 -262 0
-96 -156 -173 -261 0
-96 -156 -197 -214 0
-96 -156 -198 -213 0
-96 -161 -168 -276 0
-96 -161 -169 -266 0
-96 -161 -173 -256 0
-96 -161 -174 -255 0
-96 -161 -186 -220 0
-96 -161 -191 -215 0
-96 -161 -192 -214 0
-96 -162 -168 -275 0
-96 -162 -169 -265 0
-96 -162 -172 -256 0
-96 -162 -174 -254 0
-96 -162 -185 -220 0
-96 -162 -187 -218 0
-96 -162 -190 -215 0
-96 -162 -192 -213 0
-96 -163 -168 -274 0
-96 -163 -169 -264 0
-96 -163 -172 -255 0
-96 -163 -173 -254 0
-96 -163 -185 -219 0
-96 -163 -186 -218 0
-96 -163 -190 -214 0
-96 -163 -191 -213 0
-96 -164 -168 -273 0
-96 -164 -169 -263 0
-96 -164 -171 -256 0
-96 -164 -174 -253 0
-96 -164 -184 -220 0
-96 -164 -187 -217 0
-96 -164 -189 -215 0
-96 -164 -192 -212 0
-96 -165 -168 -272 0
-96 -165 -169 -262 0
-96 -165 -171 -255 0
-96 -165 -173 -253 0
-96 -165 -184 -219 0
-96 -165 -186 -217 0
-96 -165 -189 -214 0
-96 -165 -191 -212 0
-96 -166 -168 -271 0
-96 -166 -169 -261 0
-96 -166 -171 -254 0
-96 -166 -172 -253 0
-96 -166 -184 -218 0
-96 -166 -185 -217 0
-96 -166 -189 -213 0
-96 -166 -190 -212 0
-101 -141 -172 -285 0
-101 -141 -173 -284 0
-101 -141 -174 -283 0
-101 -142 -170 -286 0
-101 -142 -172 -282 0
-101 -142 -174 -280 0
-101 -142 -201 -223 0
-101 -142 -202 -222 0
-101 -143 -170 -285 0
-101 -143 -171 -282 0
-101 -143 -173 -279 0
-101 -143 -174 -278 0
-101 -143 -195 -227 0
-101 -143 -198 -224 0
-101 -143 -199 -223 0
-101 -143 -202 -221 0
-101 -144 -170 -284 0
-101 -144 -171 -281 0
-101 -144 -174 -277 0
-101 -144 -196 -225 0
-101 -145 -170 -283 0
-101 -145 -171 -280 0
-101 -145 -173 -277 0
-101 -145 -195 -225 0
-101 -145 -197 -223 0
-101 -157 -167 -286 0
-101 -157 -172 -251 0
-101 -157 -173 -250 0
-101 -157 -174 -249 0
-101 -157 -200 -209 0
-101 -157 -201 -208 0
-101 -157 -202 -207 0
-101 -158 -167 -285 0
-101 -158 -171 -251 0
-101 -158 -173 -248 0
-101 -158 -174 -247 0
-101 -158 -198 -209 0
-101 -158 -199 -208 0
-101 -158 -202 -206 0
-101 -159 -167 -284 0
-101 -159 -171 -250 0
-101 -159 -172 -248 0
-101 -159 -174 -246 0
-101 -159 -197 -209 0
-101 -159 -199 -207 0
-101 -159 -201 -206 0
-101 -160 -167 -283 0
-101 -160 -171 -249 0
-101 -160 -172 -247 0
-101 -160 -173 -246 0
-101 -160 -197 -208 0
-101 -160 -198 -207 0
-101 -160 -200 -206 0
-101 -161 -167 -282 0
-101 -161 -170 -251 0
-101 -161 -173 -245 0
-101 -161 -174 -244 0
-101 -161 -177 -230 0
-101 -161 -180 -224 0
-101 -161 -181 -223 0
-101 -161 -195 -209 0
-101 -161 -196 -208 0
-101 -162 -167 -281 0
-101 -162 -170 -250 0
-101 -162 -172 -245 0
-101 -162 -174 -243 0
-101 -162 -179 -224 0
-101 -162 -181 -222 0
-101 -162 -194 -209 0
-101 -162 -196 -207 0
-101 -163 -167 -280 0
-101 -163 -170 -249 0
-101 -163 -172 -244 0
-101 -163 -173 -243 0
-101 -163 -177 -228 0
-101 -163 -179 -223 0
-101 -163 -180 -222 0
-101 -163 -194 -208 0
-101 -163 -195 -207 0
-101 -164 -167 -279 0
-101 -164 -170 -248 0
-101 -164 -171 -245 0
-101 -164 -174 -242 0
-101 -164 -177 -227 0
-101 -164 -178 -224 0
-101 -164 -181 -221 0
-101 -164 -193 -209 0
-101 -164 -196 -206 0
-101 -165 -167 -278 0
-101 -165 -170 -247 0
-101 -165 -171 -244 0
-101 -165 -173 -242 0
-101 -165 -177 -226 0
-101 -165 -178 -223 0
-101 -165 -180 -221 0
-101 -165 -195 -206 0
-101 -166 -167 -277 0
-101 -166 -170 -246 0
-101 -166 -171 -243 0
-101 -166 -172 -242 0
-101 -166 -177 -225 0
-101 -166 -178 -222 0
-101 -166 -179 -221 0
-101 -166 -193 -207 0
-101 -166 -194 -206 0
-102 -140 -171 -286 0
-102 -140 -172 -285 0
-102 -140 -174 -283 0
-102 -140 -197 -230 0
-102 -140 -198 -229 0
-102 -140 -199 -228 0
-102 -140 -201 -226 0
-102 -140 -202 -225 0
-102 -142 -169 -286 0
-102 -142 -172 -276 0
-102 -142 -173 -275 0
-102 -142 -174 -274 0
-102 -142 -200 -220 0
-102 -142 -202 -218 0
-102 -143 -169 -285 0
-102 -143 -171 -276 0
-102 -143 -173 -273 0
-102 -143 -174 -272 0
-102 -143 -198 -220 0
-102 -143 -202 -217 0
-102 -144 -171 -275 0
-102 -144 -172 -273 0
-102 -144 -174 -271 0
-102 -144 -197 -220 0
-102 -145 -169 -283 0
-102 -145 -171 -274 0
-102 -145 -172 -272 0
-102 -145 -173 -271 0
-102 -145 -191 -225 0
-102 -153 -167 -286 0
-102 -153 -172 -251 0
-102 -153 -173 -250 0
-102 -153 -174 -249 0
-102 -153 -202 -207 0
-102 -154 -167 -285 0
-102 -154 -171 -251 0
-102 -154 -173 -248 0
-102 -154 -174 -247 0
-102 -154 -202 -206 0
-102 -155 -167 -284 0
-102 -155 -171 -250 0
-102 -155 -172 -248 0
-102 -155 -174 -246 0
-102 -155 -178 -229 0
-102 -155 -181 -225 0
-102 -155 -197 -209 0
-102 -156 -167 -283 0
-102 -156 -171 -249 0
-102 -156 -172 -247 0
-102 -156 -173 -246 0
-102 -156 -180 -225 0
-102 -161 -167 -276 0
-102 -161 -169 -251 0
-102 -161 -173 -241 0
-102 -161 -174 -240 0
-102 -161 -180 -220 0
-102 -161 -181 -219 0
-102 -161 -191 -209 0
-102 -161 -192 -208 0
-102 -161 -202 -204 0
-102 -162 -167 -275 0
-102 -162 -169 -250 0
-102 -162 -172 -241 0
-102 -162 -174 -239 0
-102 -162 -179 -220 0
-102 -162 -181 -218 0
-102 -162 -190 -209 0
-102 -163 -167 -274 0
-102 -163 -169 -249 0
-102 -163 -172 -240 0
-102 -163 -173 -239 0
-102 -163 -179 -219 0
-102 -163 -180 -218 0
-102 -163 -190 -208 0
-102 -163 -191 -207 0
-102 -164 -167 -273 0
-102 -164 -169 -248 0
-102 -164 -171 -241 0
-102 -164 -174 -238 0
-102 -164 -176 -227 0
-102 -164 -178 -220 0
-102 -164 -181 -217 0
-102 -164 -189 -209 0
-102 -164 -192 -206 0
-102 -164 -199 -204 0
-102 -165 -167 -272 0
-102 -165 -169 -247 0
-102 -165 -171 -240 0
-102 -165 -173 -238 0
-102 -165 -178 -219 0
-102 -165 -189 -208 0
-102 -165 -191 -206 0
-102 -166 -167 -271 0
-102 -166 -169 -246 0
-102 -166 -171 -239 0
-102 -166 -172 -238 0
-102 -166 -178 -218 0
-102 -166 -179 -217 0
-102 -166 -189 -207 0
-102 -166 -190 -206 0
-102 -166 -197 -204 0
-107 -139 -171 -286 0
-107 -139 -172 -285 0
-107 -139 -173 -284 0
-107 -139 -174 -283 0
-107 -139 -197 -230 0
-107 -139 -198 -229 0
-107 -139 -202 -225 0
-107 -142 -168 -286 0
-107 -142 -174 -264 0
-107 -143 -171 -266 0
-107 -143 -173 -263 0
-107 -143 -174 -262 0
-107 -144 -168 -284 0
-107 -144 -171 -265 0
-107 -144 -174 -261 0
-107 -145 -168 -283 0
-107 -145 -171 -264 0
-107 -145 -172 -262 0
-107 -145 -173 -261 0
-107 -148 -167 -286 0
-107 -148 -172 -251 0
-107 -148 -173 -250 0
-107 -148 -174 -249 0
-107 -149 -167 -285 0
-107 -149 -171 -251 0
-107 -149 -174 -247 0
-107 -150 -167 -284 0
-107 -150 -171 -250 0
-107 -150 -172 -248 0
-107 -150 -174 -246 0
-107 -151 -167 -283 0
-107 -151 -171 -249 0
-107 -151 -172 -247 0
-107 -151 -173 -246 0
-107 -161 -167 -266 0
-107 -161 -168 -251 0
-107 -161 -173 -236 0
-107 -161 -174 -235 0
-107 -161 -180 -215 0
-107 -161 -181 -214 0
-107 -161 -186 -209 0
-107 -161 -187 -208 0
-107 -162 -167 -265 0
-107 -162 -168 -250 0
-107 -162 -172 -236 0
-107 -162 -174 -234 0
-107 -162 -179 -215 0
-107 -162 -181 -213 0
-107 -162 -185 -209 0
-107 -162 -187 -207 0
-107 -163 -167 -264 0
-107 -163 -168 -249 0
-107 -163 -172 -235 0
-107 -163 -173 -234 0
-107 -163 -179 -214 0
-107 -163 -180 -213 0
-107 -163 -185 -208 0
-107 -163 -186 -207 0
-107 -164 -167 -263 0
-107 -164 -168 -248 0
-107 -164 -171 -236 0
-107 -164 -174 -233 0
-107 -164 -175 -227 0
-107 -164 -178 -215 0
-107 -164 -181 -212 0
-107 -164 -184 -209 0
-107 -164 -187 -206 0
-107 -164 -199 -203 0
-107 -165 -167 -262 0
-107 -165 -168 -247 0
-107 -165 -171 -235 0
-107 -165 -173 -233 0
-107 -165 -184 -208 0
-107 -165 -186 -206 0
-107 -165 -198 -203 0
-107 -166 -167 -261 0
-107 -166 -168 -246 0
-107 -166 -171 -234 0
-107 -166 -172 -233 0
-107 -166 -178 -213 0
-107 -166 -179 -212 0
-107 -166 -184 -207 0
-107 -166 -185 -206 0
-116 -139 -169 -282 0
-116 -139 -170 -276 0
-116 -139 -188 -230 0
-116 -139 -191 -224 0
-116 -139 -192 -223 0
-116 -139 -195 -220 0
-116 -139 -196 -219 0
-116 -139 -202 -216 0
-116 -140 -168 -282 0
-116 -140 -170 -266 0
-116 -140 -183 -230 0
-116 -140 -186 -224 0
-116 -140 -187 -223 0
-116 -140 -195 -215 0
-116 -140 -196 -214 0
-116 -140 -202 -211 0
-116 -141 -168 -276 0
-116 -141 -169 -266 0
-116 -141 -173 -256 0
-116 -141 -182 -230 0
-116 -141 -186 -220 0
-116 -141 -187 -219 0
-116 -141 -191 -215 0
-116 -141 -192 -214 0
-116 -141 -202 -210 0
-116 -144 -168 -270 0
-116 -144 -169 -260 0
-116 -144 -170 -256 0
-116 -144 -182 -224 0
-116 -144 -183 -220 0
-116 -144 -187 -216 0
-116 -144 -188 -215 0
-116 -144 -192 -211 0
-116 -144 -196 -210 0
-116 -145 -168 -269 0
-116 -145 -169 -259 0
-116 -145 -170 -255 0
-116 -145 -182 -223 0
-116 -145 -183 -219 0
-116 -145 -186 -216 0
-116 -145 -188 -214 0
-116 -145 -191 -211 0
-116 -145 -195 -210 0
-116 -146 -167 -282 0
-116 -146 -170 -251 0
-116 -146 -177 -230 0
-116 -146 -180 -224 0
-116 -146 -181 -223 0
-116 -146 -196 -208 0
-116 -146 -202 -205 0
-116 -147 -167 -276 0
-116 -147 -169 -251 0
-116 -147 -173 -241 0
-116 -147 -176 -230 0
-116 -147 -180 -220 0
-116 -147 -181 -219 0
-116 -147 -191 -209 0
-116 -147 -192 -208 0
-116 -147 -202 -204 0
-116 -150 -167 -270 0
-116 -150 -169 -245 0
-116 -150 -170 -241 0
-116 -150 -176 -224 0
-116 -150 -177 -220 0
-116 -150 -181 -216 0
-116 -150 -188 -209 0
-116 -150 -192 -205 0
-116 -150 -196 -204 0
-116 -151 -167 -269 0
-116 -151 -169 -244 0
-116 -151 -170 -240 0
-116 -151 -176 -223 0
-116 -151 -177 -219 0
-116 -151 -180 -216 0
-116 -151 -188 -208 0
-116 -151 -191 -205 0
-116 -151 -195 -204 0
-116 -152 -167 -266 0
-116 -152 -168 -251 0
-116 -152 -173 -236 0
-116 -152 -174 -235 0
-116 -152 -175 -230 0
-116 -152 -180 -215 0
-116 -152 -181 -214 0
-116 -152 -186 -209 0
-116 -152 -187 -208 0
-116 -152 -202 -203 0
-116 -155 -167 -260 0
-116 -155 -168 -245 0
-116 -155 -170 -236 0
-116 -155 -175 -224 0
-116 -155 -177 -215 0
-116 -155 -181 -211 0
-116 -155 -183 -209 0
-116 -155 -187 -205 0
-116 -155 -196 -203 0
-116 -156 -167 -259 0
-116 -156 -168 -244 0
-116 -156 -170 -235 0
-116 -156 -175 -223 0
-116 -156 -177 -214 0
-116 -156 -180 -211 0
-116 -156 -183 -208 0
-116 -156 -186 -205 0
-116 -156 -195 -203 0
-116 -159 -167 -256 0
-116 -159 -168 -241 0
-116 -159 -169 -236 0
-116 -159 -175 -220 0
-116 -159 -176 -215 0
-116 -159 -181 -210 0
-116 -159 -182 -209 0
-116 -159 -187 -204 0
-116 -159 -192 -203 0
-116 -160 -167 -255 0
-116 -160 -168 -240 0
-116 -160 -169 -235 0
-116 -160 -175 -219 0
-116 -160 -176 -214 0
-116 -160 -180 -210 0
-116 -160 -182 -208 0
-116 -160 -186 -204 0
-116 -160 -191 -203 0
-116 -166 -175 -216 0
-116 -166 -176 -211 0
-116 -166 -177 -210 0
-116 -166 -182 -205 0
-116 -166 -183 -204 0
-116 -166 -188 -203 0
-117 -139 -169 -281 0
-117 -139 -170 -275 0
-117 -139 -188 -229 0
-117 -139 -190 -224 0
-117 -139 -196 -218 0
-117 -139 -201 -216 0
-117 -140 -168 -281 0
-117 -140 -170 -265 0
-117 -140 -174 -258 0
-117 -140 -183 -229 0
-117 -140 -185 -224 0
-117 -140 -194 -215 0
-117 -140 -201 -211 0
-117 -141 -168 -275 0
-117 -141 -169 -265 0
-117 -141 -172 -256 0
-117 -141 -182 -229 0
-117 -141 -185 -220 0
-117 -141 -190 -215 0
-117 -141 -201 -210 0
-117 -143 -168 -270 0
-117 -143 -169 -260 0
-117 -143 -170 -256 0
-117 -143 -182 -224 0
-117 -143 -183 -220 0
-117 -143 -188 -215 0
-117 -143 -192 -211 0
-117 -143 -196 -210 0
-117 -145 -168 -268 0
-117 -145 -169 -258 0
-117 -145 -170 -254 0
-117 -145 -182 -222 0
-117 -145 -183 -218 0
-117 -145 -188 -213 0
-117 -145 -190 -211 0
-117 -145 -194 -210 0
-117 -146 -167 -281 0
-117 -146 -170 -250 0
-117 -146 -172 -245 0
-117 -146 -177 -229 0
-117 -146 -181 -222 0
-117 -146 -194 -209 0
-117 -146 -196 -207 0
-117 -146 -201 -205 0
-117 -147 -167 -275 0
-117 -147 -169 -250 0
-117 -147 -176 -229 0
-117 -147 -179 -220 0
-117 -147 -181 -218 0
-117 -147 -190 -209 0
-117 -147 -192 -207 0
-117 -147 -201 -204 0
-117 -149 -167 -270 0
-117 -149 -169 -245 0
-117 -149 -170 -241 0
-117 -149 -176 -224 0
-117 -149 -177 -220 0
-117 -149 -181 -216 0
-117 -149 -188 -209 0
-117 -149 -192 -205 0
-117 -149 -196 -204 0
-117 -151 -167 -268 0
-117 -151 -169 -243 0
-117 -151 -170 -239 0
-117 -151 -176 -222 0
-117 -151 -177 -218 0
-117 -151 -179 -216 0
-117 -151 -188 -207 0
-117 -151 -190 -205 0
-117 -151 -194 -204 0
-117 -152 -167 -265 0
-117 -152 -168 -250 0
-117 -152 -172 -236 0
-117 -152 -174 -234 0
-117 -152 -175 -229 0
-117 -152 -179 -215 0
-117 -152 -181 -213 0
-117 -152 -185 -209 0
-117 -152 -187 -207 0
-117 -152 -201 -203 0
-117 -154 -167 -260 0
-117 -154 -168 -245 0
-117 -154 -170 -236 0
-117 -154 -175 -224 0
-117 -154 -177 -215 0
-117 -154 -181 -211 0
-117 -154 -183 -209 0
-117 -154 -187 -205 0
-117 -154 -196 -203 0
-117 -156 -167 -258 0
-117 -156 -168 -243 0
-117 -156 -170 -234 0
-117 -156 -175 -222 0
-117 -156 -177 -213 0
-117 -156 -179 -211 0
-117 -156 -183 -207 0
-117 -156 -185 -205 0
-117 -156 -194 -203 0
-117 -158 -167 -256 0
-117 -158 -168 -241 0
-117 -158 -169 -236 0
-117 -158 -175 -220 0
-117 -158 -176 -215 0
-117 -158 -181 -210 0
-117 -158 -182 -209 0
-117 -158 -187 -204 0
-117 -158 -192 -203 0
-117 -160 -167 -254 0
-117 -160 -168 -239 0
-117 -160 -169 -234 0
-117 -160 -175 -218 0
-117 -160 -176 -213 0
-117 -160 -179 -210 0
-117 -160 -182 -207 0
-117 -160 -185 -204 0
-117 -160 -190 -203 0
-117 -165 -175 -216 0
-117 -165 -176 -211 0
-117 -165 -177 -210 0
-117 -165 -182 -205 0
-117 -165 -183 -204 0
-117 -165 -188 -203 0
-118 -139 -169 -280 0
-118 -139 -170 -274 0
-118 -139 -173 -268 0
-118 -139 -188 -228 0
-118 -139 -190 -223 0
-118 -139 -191 -222 0
-118 -139 -194 -219 0
-118 -139 -195 -218 0
-118 -139 -200 -216 0
-118 -140 -168 -280 0
-118 -140 -170 -264 0
-118 -140 -173 -258 0
-118 -140 -183 -228 0
-118 -140 -185 -223 0
-118 -140 -186 -222 0
-118 -140 -194 -214 0
-118 -140 -200 -211 0
-118 -141 -168 -274 0
-118 -141 -169 -264 0
-118 -141 -172 -255 0
-118 -141 -173 -254 0
-118 -141 -182 -228 0
-118 -141 -185 -219 0
-118 -141 -186 -218 0
-118 -141 -190 -214 0
-118 -141 -191 -213 0
-118 -141 -200 -210 0
-118 -143 -168 -269 0
-118 -143 -169 -259 0
-118 -143 -170 -255 0
-118 -143 -182 -223 0
-118 -143 -183 -219 0
-118 -143 -186 -216 0
-118 -143 -188 -214 0
-118 -143 -191 -211 0
-118 -143 -195 -210 0
-118 -144 -168 -268 0
-118 -144 -169 -258 0
-118 -144 -170 -254 0
-118 -144 -182 -222 0
-118 -144 -183 -218 0
-118 -144 -185 -216 0
-118 -144 -188 -213 0
-118 -144 -190 -211 0
-118 -144 -194 -210 0
-118 -146 -167 -280 0
-118 -146 -170 -249 0
-118 -146 -177 -228 0
-118 -146 -179 -223 0
-118 -146 -180 -222 0
-118 -146 -194 -208 0
-118 -146 -195 -207 0
-118 -146 -200 -205 0
-118 -147 -167 -274 0
-118 -147 -169 -249 0
-118 -147 -172 -240 0
-118 -147 -173 -239 0
-118 -147 -176 -228 0
-118 -147 -179 -219 0
-118 -147 -180 -218 0
-118 -147 -190 -208 0
-118 -147 -191 -207 0
-118 -147 -200 -204 0
-118 -149 -167 -269 0
-118 -149 -169 -244 0
-118 -149 -170 -240 0
-118 -149 -176 -223 0
-118 -149 -177 -219 0
-118 -149 -180 -216 0
-118 -149 -188 -208 0
-118 -149 -191 -205 0
-118 -149 -195 -204 0
-118 -150 -167 -268 0
-118 -150 -169 -243 0
-118 -150 -170 -239 0
-118 -150 -176 -222 0
-118 -150 -177 -218 0
-118 -150 -179 -216 0
-118 -150 -188 -207 0
-118 -150 -190 -205 0
-118 -150 -194 -204 0
-118 -152 -167 -264 0
-118 -152 -168 -249 0
-118 -152 -173 -234 0
-118 -152 -175 -228 0
-118 -152 -179 -214 0
-118 -152 -180 -213 0
-118 -152 -185 -208 0
-118 -152 -186 -207 0
-118 -152 -200 -203 0
-118 -154 -167 -259 0
-118 -154 -168 -244 0
-118 -154 -170 -235 0
-118 -154 -175 -223 0
-118 -154 -177 -214 0
-118 -154 -180 -211 0
-118 -154 -183 -208 0
-118 -154 -186 -205 0
-118 -154 -195 -203 0
-118 -155 -167 -258 0
-118 -155 -168 -243 0
-118 -155 -170 -234 0
-118 -155 -175 -222 0
-118 -155 -177 -213 0
-118 -155 -179 -211 0
-118 -155 -183 -207 0
-118 -155 -185 -205 0
-118 -155 -194 -203 0
-118 -158 -167 -255 0
-118 -158 -168 -240 0
-118 -158 -169 -235 0
-118 -158 -175 -219 0
-118 -158 -176 -214 0
-118 -158 -180 -210 0
-118 -158 -182 -208 0
-118 -158 -186 -204 0
-118 -158 -191 -203 0
-118 -159 -167 -254 0
-118 -159 -168 -239 0
-118 -159 -169 -234 0
-118 -159 -175 -218 0
-118 -159 -176 -213 0
-118 -159 -179 -210 0
-118 -159 -182 -207 0
-118 -159 -185 -204 0
-118 -159 -190 -203 0
-118 -164 -175 -216 0
-118 -164 -176 -211 0
-118 -164 -177 -210 0
-118 -164 -182 -205 0
-118 -164 -183 -204 0
-118 -164 -188 -203 0
-119 -139 -169 -279 0
-119 -139 -170 -273 0
-119 -139 -171 -270 0
-119 -139 -188 -227 0
-119 -139 -192 -221 0
-119 -139 -196 -217 0
-119 -139 -199 -216 0
-119 -140 -168 -279 0
-119 -140 -170 -263 0
-119 -140 -171 -260 0
-119 -140 -174 -257 0
-119 -140 -183 -227 0
-119 -140 -184 -224 0
-119 -140 -187 -221 0
-119 -140 -193 -215 0
-119 -140 -196 -212 0
-119 -140 -199 -211 0
-119 -141 -168 -273 0
-119 -141 -169 -263 0
-119 -141 -171 -256 0
-119 -141 -182 -227 0
-119 -141 -184 -220 0
-119 -141 -187 -217 0
-119 -141 -189 -215 0
-119 -141 -192 -212 0
-119 -141 -199 -210 0
-119 -142 -168 -270 0
-119 -142 -169 -260 0
-119 -142 -170 -256 0
-119 -142 -182 -224 0
-119 -142 -183 -220 0
-119 -142 -187 -216 0
-119 -142 -188 -215 0
-119 -142 -192 -211 0
-119 -142 -196 -210 0
-119 -145 -168 -267 0
-119 -145 -169 -257 0
-119 -145 -170 -253 0
-119 -145 -182 -221 0
-119 -145 -183 -217 0
-119 -145 -184 -216 0
-119 -145 -188 -212 0
-119 -145 -189 -211 0
-119 -145 -193 -210 0
-119 -146 -167 -279 0
-119 -146 -170 -248 0
-119 -146 -174 -242 0
-119 -146 -177 -227 0
-119 -146 -178 -224 0
-119 -146 -181 -221 0
-119 -146 -193 -209 0
-119 -146 -196 -206 0
-119 -146 -199 -205 0
-119 -147 -167 -273 0
-119 -147 -169 -248 0
-119 -147 -171 -241 0
-119 -147 -174 -238 0
-119 -147 -176 -227 0
-119 -147 -178 -220 0
-119 -147 -181 -217 0
-119 -147 -189 -209 0
-119 -147 -192 -206 0
-119 -147 -199 -204 0
-119 -148 -167 -270 0
-119 -148 -169 -245 0
-119 -148 -170 -241 0
-119 -148 -176 -224 0
-119 -148 -177 -220 0
-119 -148 -181 -216 0
-119 -148 -188 -209 0
-119 -148 -192 -205 0
-119 -148 -196 -204 0
-119 -151 -167 -267 0
-119 -151 -169 -242 0
-119 -151 -170 -238 0
-119 -151 -176 -221 0
-119 -151 -177 -217 0
-119 -151 -178 -216 0
-119 -151 -188 -206 0
-119 -151 -189 -205 0
-119 -151 -193 -204 0
-119 -152 -167 -263 0
-119 -152 -168 -248 0
-119 -152 -171 -236 0
-119 -152 -174 -233 0
-119 -152 -175 -227 0
-119 -152 -178 -215 0
-119 -152 -181 -212 0
-119 -152 -184 -209 0
-119 -152 -187 -206 0
-119 -152 -199 -203 0
-119 -153 -167 -260 0
-119 -153 -168 -245 0
-119 -153 -170 -236 0
-119 -153 -175 -224 0
-119 -153 -177 -215 0
-119 -153 -181 -211 0
-119 -153 -183 -209 0
-119 -153 -187 -205 0
-119 -153 -196 -203 0
-119 -156 -167 -257 0
-119 -156 -168 -242 0
-119 -156 -170 -233 0
-119 -156 -175 -221 0
-119 -156 -177 -212 0
-119 -156 -178 -211 0
-119 -156 -183 -206 0
-119 -156 -184 -205 0
-119 -156 -193 -203 0
-119 -157 -167 -256 0
-119 -157 -168 -241 0
-119 -157 -169 -236 0
-119 -157 -175 -220 0
-119 -157 -176 -215 0
-119 -157 -181 -210 0
-119 -157 -182 -209 0
-119 -157 -187 -204 0
-119 -157 -192 -203 0
-119 -160 -167 -253 0
-119 -160 -168 -238 0
-119 -160 -169 -233 0
-119 -160 -175 -217 0
-119 -160 -176 -212 0
-119 -160 -178 -210 0
-119 -160 -182 -206 0
-119 -160 -184 -204 0
-119 -160 -189 -203 0
-119 -163 -175 -216 0
-119 -163 -176 -211 0
-119 -163 -177 -210 0
-119 -163 -182 -205 0
-119 -163 -183 -204 0
-119 -163 -188 -203 0
-120 -139 -169 -278 0
-120 -139 -170 -272 0
-120 -139 -171 -269 0
-120 -139 -188 -226 0
-120 -139 -189 -223 0
-120 -139 -191 -221 0
-120 -139 -195 -217 0
-120 -139 -198 -216 0
-120 -140 -168 -278 0
-120 -140 -170 -262 0
-120 -140 -173 -257 0
-120 -140 -183 -226 0
-120 -140 -184 -223 0
-120 -140 -186 -221 0
-120 -140 -193 -214 0
-120 -140 -195 -212 0
-120 -140 -198 -211 0
-120 -141 -168 -272 0
-120 -141 -169 -262 0
-120 -141 -173 -253 0
-120 -141 -182 -226 0
-120 -141 -186 -217 0
-120 -141 -189 -214 0
-120 -141 -191 -212 0
-120 -141 -198 -210 0
-120 -142 -168 -269 0
-120 -142 -169 -259 0
-120 -142 -170 -255 0
-120 -142 -182 -223 0
-120 -142 -183 -219 0
-120 -142 -186 -216 0
-120 -142 -188 -214 0
-120 -142 -191 -211 0
-120 -142 -195 -210 0
-120 -144 -168 -267 0
-120 -144 -169 -257 0
-120 -144 -170 -253 0
-120 -144 -182 -221 0
-120 -144 -183 -217 0
-120 -144 -184 -216 0
-120 -144 -188 -212 0
-120 -144 -189 -211 0
-120 -144 -193 -210 0
-120 -146 -167 -278 0
-120 -146 -170 -247 0
-120 -146 -177 -226 0
-120 -146 -178 -223 0
-120 -146 -193 -208 0
-120 -146 -198 -205 0
-120 -147 -167 -272 0
-120 -147 -169 -247 0
-120 -147 -171 -240 0
-120 -147 -173 -238 0
-120 -147 -176 -226 0
-120 -147 -189 -208 0
-120 -147 -198 -204 0
-120 -148 -167 -269 0
-120 -148 -169 -244 0
-120 -148 -170 -240 0
-120 -148 -176 -223 0
-120 -148 -177 -219 0
-120 -148 -180 -216 0
-120 -148 -188 -208 0
-120 -148 -191 -205 0
-120 -148 -195 -204 0
-120 -150 -167 -267 0
-120 -150 -169 -242 0
-120 -150 -170 -238 0
-120 -150 -176 -221 0
-120 -150 -177 -217 0
-120 -150 -178 -216 0
-120 -150 -188 -206 0
-120 -150 -189 -205 0
-120 -150 -193 -204 0
-120 -152 -167 -262 0
-120 -152 -168 -247 0
-120 -152 -171 -235 0
-120 -152 -175 -226 0
-120 -152 -178 -214 0
-120 -152 -180 -212 0
-120 -152 -184 -208 0
-120 -152 -186 -206 0
-120 -152 -198 -203 0
-120 -153 -167 -259 0
-120 -153 -168 -244 0
-120 -153 -170 -235 0
-120 -153 -175 -223 0
-120 -153 -177 -214 0
-120 -153 -180 -211 0
-120 -153 -183 -208 0
-120 -153 -186 -205 0
-120 -153 -195 -203 0
-120 -155 -167 -257 0
-120 -155 -168 -242 0
-120 -155 -170 -233 0
-120 -155 -175 -221 0
-120 -155 -177 -212 0
-120 -155 -178 -211 0
-120 -155 -183 -206 0
-120 -155 -184 -205 0
-120 -155 -193 -203 0
-120 -157 -167 -255 0
-120 -157 -168 -240 0
-120 -157 -169 -235 0
-120 -157 -175 -219 0
-120 -157 -176 -214 0
-120 -157 -180 -210 0
-120 -157 -182 -208 0
-120 -157 -186 -204 0
-120 -157 -191 -203 0
-120 -159 -167 -253 0
-120 -159 -168 -238 0
-120 -159 -169 -233 0
-120 -159 -175 -217 0
-120 -159 -176 -212 0
-120 -159 -178 -210 0
-120 -159 -182 -206 0
-120 -159 -184 -204 0
-120 -159 -189 -203 0
-120 -162 -175 -216 0
-120 -162 -176 -211 0
-120 -162 -177 -210 0
-120 -162 -182 -205 0
-120 -162 -183 -204 0
-120 -162 -188 -203 0
-121 -139 -169 -277 0
-121 -139 -170 -271 0
-121 -139 -171 -268 0
-121 -139 -188 -225 0
-121 -139 -189 -222 0
-121 -139 -190 -221 0
-121 -139 -193 -218 0
-121 -139 -194 -217 0
-121 -139 -197 -216 0
-121 -140 -168 -277 0
-121 -140 -170 -261 0
-121 -140 -172 -257 0
-121 -140 -183 -225 0
-121 -140 -184 -222 0
-121 -140 -185 -221 0
-121 -140 -193 -213 0
-121 -140 -194 -212 0
-121 -140 -197 -211 0
-121 -141 -168 -271 0
-121 -141 -169 -261 0
-121 -141 -171 -254 0
-121 -141 -172 -253 0
-121 -141 -182 -225 0
-121 -141 -184 -218 0
-121 -141 -189 -213 0
-121 -141 -190 -212 0
-121 -141 -197 -210 0
-121 -142 -168 -268 0
-121 -142 -169 -258 0
-121 -142 -170 -254 0
-121 -142 -182 -222 0
-121 -142 -183 -218 0
-121 -142 -185 -216 0
-121 -142 -188 -213 0
-121 -142 -190 -211 0
-121 -142 -194 -210 0
-121 -143 -168 -267 0
-121 -143 -169 -257 0
-121 -143 -170 -253 0
-121 -143 -182 -221 0
-121 -143 -183 -217 0
-121 -143 -184 -216 0
-121 -143 -188 -212 0
-121 -143 -189 -211 0
-121 -143 -193 -210 0
-121 -146 -167 -277 0
-121 -146 -170 -246 0
-121 -146 -177 -225 0
-121 -146 -178 -222 0
-121 -146 -193 -207 0
-121 -146 -194 -206 0
-121 -146 -197 -205 0
-121 -147 -167 -271 0
-121 -147 -169 -246 0
-121 -147 -171 -239 0
-121 -147 -172 -238 0
-121 -147 -176 -225 0
-121 -147 -178 -218 0
-121 -147 -189 -207 0
-121 -147 -190 -206 0
-121 -147 -197 -204 0
-121 -148 -167 -268 0
-121 -148 -169 -243 0
-121 -148 -170 -239 0
-121 -148 -176 -222 0
-121 -148 -177 -218 0
-121 -148 -179 -216 0
-121 -148 -188 -207 0
-121 -148 -190 -205 0
-121 -148 -194 -204 0
-121 -149 -167 -267 0
-121 -149 -169 -242 0
-121 -149 -170 -238 0
-121 -149 -176 -221 0
-121 -149 -177 -217 0
-121 -149 -178 -216 0
-121 -149 -188 -206 0
-121 -149 -189 -205 0
-121 -149 -193 -204 0
-121 -152 -167 -261 0
-121 -152 -168 -246 0
-121 -152 -172 -233 0
-121 -152 -175 -225 0
-121 -152 -178 -213 0
-121 -152 -184 -207 0
-121 -152 -185 -206 0
-121 -152 -197 -203 0
-121 -153 -167 -258 0
-121 -153 -168 -243 0
-121 -153 -170 -234 0
-121 -153 -175 -222 0
-121 -153 -177 -213 0
-121 -153 -179 -211 0
-121 -153 -183 -207 0
-121 -153 -185 -205 0
-121 -153 -194 -203 0
-121 -154 -167 -257 0
-121 -154 -168 -242 0
-121 -154 -170 -233 0
-121 -154 -175 -221 0
-121 -154 -177 -212 0
-121 -154 -178 -211 0
-121 -154 -184 -205 0
-121 -154 -193 -203 0
-121 -157 -167 -254 0
-121 -157 -168 -239 0
-121 -157 -169 -234 0
-121 -157 -175 -218 0
-121 -157 -176 -213 0
-121 -157 -179 -210 0
-121 -157 -182 -207 0
-121 -157 -185 -204 0
-121 -157 -190 -203 0
-121 -158 -167 -253 0
-121 -158 -168 -238 0
-121 -158 -169 -233 0
-121 -158 -175 -217 0
-121 -158 -176 -212 0
-121 -158 -178 -210 0
-121 -158 -182 -206 0
-121 -158 -184 -204 0
-121 -158 -189 -203 0
-121 -161 -175 -216 0
-121 -161 -176 -211 0
-121 -161 -177 -210 0
-121 -161 -182 -205 0
-121 -161 -183 -204 0
-121 -161 -188 -203 0
1 0
2 0
3 0
4 0
5 0
6 0
7 0
-8 0
-9 0
-10 0
-11 0
12 0
13 0
-14 0
-15 0
-16 0
-17 0
-18 0
-19 0
-20 0
-21 0
