p cnf 286 1226
-1 -2 -3 -12 -13 -22 0
-1 -2 -4 -12 -14 -23 0
-1 -3 -4 -13 -14 -31 0
-2 -5 -6 -24 -25 -46 0
-2 -5 -7 -24 -26 -47 0
-2 -6 -7 -25 -26 -52 0
-3 -5 -6 -32 -33 -46 0
-3 -5 -7 -32 -34 -47 0
-3 -6 -7 -33 -34 -52 0
-4 -5 -6 -39 -40 -46 0
-4 -5 -7 -39 -41 -47 0
-4 -6 -7 -40 -41 -52 0
-5 -6 -7 -46 -47 -52 0
8 9 10 61 62 64 0
8 9 11 61 63 65 0
8 10 11 62 63 66 0
9 10 11 64 65 66 0
15 16 17 46 47 52 0
15 16 18 46 48 53 0
15 16 19 46 49 54 0
15 16 20 46 50 55 0
15 16 21 46 51 56 0
15 17 18 47 48 57 0
15 17 19 47 49 58 0
15 17 20 47 50 59 0
15 17 21 47 51 60 0
15 18 19 48 49 61 0
15 18 20 48 50 62 0
15 18 21 48 51 63 0
15 19 20 49 50 64 0
15 19 21 49 51 65 0
15 20 21 50 51 66 0
16 17 18 52 53 57 0
16 17 19 52 54 58 0
16 17 20 52 55 59 0
16 17 21 52 56 60 0
16 18 19 53 54 61 0
16 18 20 53 55 62 0
16 18 21 53 56 63 0
16 19 20 54 55 64 0
16 19 21 54 56 65 0
16 20 21 55 56 66 0
17 18 19 57 58 61 0
17 18 20 57 59 62 0
17 18 21 57 60 63 0
17 19 20 58 59 64 0
17 19 21 58 60 65 0
17 20 21 59 60 66 0
22 23 24 31 32 39 0
22 23 25 31 33 40 0
22 23 26 31 34 41 0
22 23 27 31 35 42 0
22 23 28 31 36 43 0
22 23 29 31 37 44 0
22 23 30 31 38 45 0
22 24 25 32 33 46 0
22 24 26 32 34 47 0
22 24 28 32 36 49 0
22 24 29 32 37 50 0
22 25 26 33 34 52 0
22 25 27 33 35 53 0
22 25 28 33 36 54 0
22 25 29 33 37 55 0
22 25 30 33 38 56 0
22 26 27 34 35 57 0
22 26 28 34 36 58 0
22 26 29 34 37 59 0
22 26 30 34 38 60 0
22 27 29 35 37 62 0
22 27 30 35 38 63 0
22 28 29 36 37 64 0
22 28 30 36 38 65 0
22 29 30 37 38 66 0
23 24 25 39 40 46 0
23 24 26 39 41 47 0
23 24 27 39 42 48 0
23 24 28 39 43 49 0
23 24 29 39 44 50 0
23 24 30 39 45 51 0
23 25 26 40 41 52 0
23 25 27 40 42 53 0
23 25 28 40 43 54 0
23 25 29 40 44 55 0
23 26 27 41 42 57 0
23 26 28 41 43 58 0
23 26 29 41 44 59 0
23 26 30 41 45 60 0
23 29 30 44 45 66 0
-24 -27 -28 -48 -49 -61 0
-24 -27 -29 -48 -50 -62 0
-24 -27 -30 -48 -51 -63 0
-24 -28 -29 -49 -50 -64 0
-24 -28 -30 -49 -51 -65 0
-24 -29 -30 -50 -51 -66 0
-25 -27 -28 -53 -54 -61 0
-25 -27 -29 -53 -55 -62 0
-25 -27 -30 -53 -56 -63 0
-25 -28 -29 -54 -55 -64 0
-25 -28 -30 -54 -56 -65 0
-25 -29 -30 -55 -56 -66 0
-26 -27 -28 -57 -58 -61 0
-26 -27 -29 -57 -59 -62 0
-26 -27 -30 -57 -60 -63 0
-26 -28 -29 -58 -59 -64 0
-26 -28 -30 -58 -60 -65 0
-26 -29 -30 -59 -60 -66 0
-27 -28 -29 -61 -62 -64 0
31 32 33 39 40 46 0
31 32 34 39 41 47 0
31 32 35 39 42 48 0
31 32 36 39 43 49 0
31 32 37 39 44 50 0
31 32 38 39 45 51 0
31 33 34 40 41 52 0
-32 -35 -36 -48 -49 -61 0
-32 -35 -37 -48 -50 -62 0
-32 -35 -38 -48 -51 -63 0
-32 -36 -37 -49 -50 -64 0
-32 -36 -38 -49 -51 -65 0
-32 -37 -38 -50 -51 -66 0
-33 -35 -36 -53 -54 -61 0
-33 -35 -37 -53 -55 -62 0
-33 -35 -38 -53 -56 -63 0
-33 -36 -37 -54 -55 -64 0
-33 -36 -38 -54 -56 -65 0
-33 -37 -38 -55 -56 -66 0
-34 -35 -36 -57 -58 -61 0
-34 -35 -37 -57 -59 -62 0
-34 -35 -38 -57 -60 -63 0
-34 -36 -37 -58 -59 -64 0
-34 -36 -38 -58 -60 -65 0
-34 -37 -38 -59 -60 -66 0
-39 -42 -43 -48 -49 -61 0
-39 -42 -44 -48 -50 -62 0
-39 -42 -45 -48 -51 -63 0
-39 -43 -44 -49 -50 -64 0
-39 -43 -45 -49 -51 -65 0
-39 -44 -45 -50 -51 -66 0
-40 -42 -43 -53 -54 -61 0
-40 -42 -44 -53 -55 -62 0
-40 -42 -45 -53 -56 -63 0
-40 -43 -44 -54 -55 -64 0
-40 -43 -45 -54 -56 -65 0
-40 -44 -45 -55 -56 -66 0
-41 -42 -43 -57 -58 -61 0
-41 -42 -44 -57 -59 -62 0
-41 -42 -45 -57 -60 -63 0
-41 -43 -44 -58 -59 -64 0
-41 -43 -45 -58 -60 -65 0
-41 -44 -45 -59 -60 -66 0
-46 -48 -49 -53 -54 -61 0
-46 -48 -50 -53 -55 -62 0
-46 -48 -51 -53 -56 -63 0
-46 -49 -50 -54 -55 -64 0
-46 -49 -51 -54 -56 -65 0
-46 -50 -51 -55 -56 -66 0
-47 -48 -49 -57 -58 -61 0
-47 -48 -50 -57 -59 -62 0
-47 -48 -51 -57 -60 -63 0
-47 -49 -50 -58 -59 -64 0
-47 -49 -51 -58 -60 -65 0
-47 -50 -51 -59 -60 -66 0
-48 -49 -50 -61 -62 -64 0
-48 -49 -51 -61 -63 -65 0
-48 -50 -51 -62 -63 -66 0
-49 -50 -51 -64 -65 -66 0
-52 -53 -54 -57 -58 -61 0
-52 -53 -55 -57 -59 -62 0
-52 -53 -56 -57 -60 -63 0
-52 -54 -55 -58 -59 -64 0
-52 -54 -56 -58 -60 -65 0
-52 -55 -56 -59 -60 -66 0
-53 -54 -55 -61 -62 -64 0
-53 -54 -56 -61 -63 -65 0
-53 -55 -56 -62 -63 -66 0
-54 -55 -56 -64 -65 -66 0
-57 -58 -59 -61 -62 -64 0
-57 -58 -60 -61 -63 -65 0
-57 -59 -60 -62 -63 -66 0
-58 -59 -60 -64 -65 -66 0
-61 -62 -63 -64 -65 -66 0
67 -1 -2 -12 0
68 -1 -3 -13 0
69 -1 -4 -14 0
79 -2 -5 -24 0
80 -2 -6 -25 0
81 -2 -7 -26 0
87 -3 -5 -32 0
88 -3 -6 -33 0
89 -3 -7 -34 0
94 -4 -5 -39 0
95 -4 -6 -40 0
96 -4 -7 -41 0
101 -5 -6 -46 0
102 -5 -7 -47 0
107 -6 -7 -52 0
116 8 9 61 0
117 8 10 62 0
118 8 11 63 0
119 9 10 64 0
120 9 11 65 0
121 10 11 66 0
146 15 16 46 0
147 15 17 47 0
148 15 18 48 0
149 15 19 49 0
150 15 20 50 0
151 15 21 51 0
152 16 17 52 0
153 16 18 53 0
154 16 19 54 0
155 16 20 55 0
156 16 21 56 0
157 17 18 57 0
158 17 19 58 0
159 17 20 59 0
160 17 21 60 0
161 18 19 61 0
162 18 20 62 0
163 18 21 63 0
164 19 20 64 0
165 19 21 65 0
166 20 21 66 0
167 22 23 31 0
168 22 24 32 0
169 22 25 33 0
170 22 26 34 0
171 22 27 35 0
172 22 28 36 0
173 22 29 37 0
174 22 30 38 0
175 23 24 39 0
176 23 25 40 0
177 23 26 41 0
178 23 27 42 0
179 23 28 43 0
180 23 29 44 0
181 23 30 45 0
182 24 25 46 0
183 24 26 47 0
184 -24 -27 -48 0
184 24 27 48 0
185 -24 -28 -49 0
185 24 28 49 0
186 -24 -29 -50 0
186 24 29 50 0
187 -24 -30 -51 0
187 24 30 51 0
188 25 26 52 0
189 -25 -27 -53 0
189 25 27 53 0
190 -25 -28 -54 0
190 25 28 54 0
191 -25 -29 -55 0
191 25 29 55 0
192 -25 -30 -56 0
192 25 30 56 0
193 -26 -27 -57 0
193 26 27 57 0
194 -26 -28 -58 0
194 26 28 58 0
195 -26 -29 -59 0
195 26 29 59 0
196 -26 -30 -60 0
196 26 30 60 0
197 -27 -28 -61 0
197 27 28 61 0
198 -27 -29 -62 0
198 27 29 62 0
199 -27 -30 -63 0
199 27 30 63 0
200 -28 -29 -64 0
200 28 29 64 0
201 -28 -30 -65 0
201 28 30 65 0
202 -29 -30 -66 0
202 29 30 66 0
203 31 32 39 0
204 31 33 40 0
205 31 34 41 0
206 31 35 42 0
207 31 36 43 0
208 31 37 44 0
209 31 38 45 0
210 32 33 46 0
211 32 34 47 0
212 -32 -35 -48 0
212 32 35 48 0
213 -32 -36 -49 0
213 32 36 49 0
214 -32 -37 -50 0
214 32 37 50 0
215 -32 -38 -51 0
215 32 38 51 0
216 33 34 52 0
217 -33 -35 -53 0
217 33 35 53 0
218 -33 -36 -54 0
218 33 36 54 0
219 -33 -37 -55 0
219 33 37 55 0
220 -33 -38 -56 0
220 33 38 56 0
221 -34 -35 -57 0
221 34 35 57 0
222 -34 -36 -58 0
222 34 36 58 0
223 -34 -37 -59 0
223 34 37 59 0
224 -34 -38 -60 0
224 34 38 60 0
225 -35 -36 -61 0
225 35 36 61 0
226 -35 -37 -62 0
226 35 37 62 0
227 -35 -38 -63 0
227 35 38 63 0
228 -36 -37 -64 0
228 36 37 64 0
229 -36 -38 -65 0
229 36 38 65 0
230 -37 -38 -66 0
230 37 38 66 0
231 39 40 46 0
232 39 41 47 0
233 -39 -42 -48 0
233 39 42 48 0
234 -39 -43 -49 0
234 39 43 49 0
235 -39 -44 -50 0
235 39 44 50 0
236 -39 -45 -51 0
236 39 45 51 0
237 40 41 52 0
238 -40 -42 -53 0
239 -40 -43 -54 0
240 -40 -44 -55 0
241 -40 -45 -56 0
241 40 45 56 0
242 -41 -42 -57 0
242 41 42 57 0
243 -41 -43 -58 0
243 41 43 58 0
244 -41 -44 -59 0
244 41 44 59 0
245 -41 -45 -60 0
245 41 45 60 0
246 -42 -43 -61 0
246 42 43 61 0
247 -42 -44 -62 0
247 42 44 62 0
248 -42 -45 -63 0
248 42 45 63 0
249 -43 -44 -64 0
249 43 44 64 0
250 -43 -45 -65 0
250 43 45 65 0
251 -44 -45 -66 0
251 44 45 66 0
253 -46 -48 -53 0
254 -46 -49 -54 0
254 46 49 54 0
255 -46 -50 -55 0
256 -46 -51 -56 0
257 -47 -48 -57 0
258 -47 -49 -58 0
259 -47 -50 -59 0
260 -47 -51 -60 0
261 -48 -49 -61 0
261 48 49 61 0
262 -48 -50 -62 0
262 48 50 62 0
263 -48 -51 -63 0
263 48 51 63 0
264 -49 -50 -64 0
264 49 50 64 0
265 -49 -51 -65 0
265 49 51 65 0
266 -50 -51 -66 0
267 -52 -53 -57 0
268 -52 -54 -58 0
269 -52 -55 -59 0
269 52 55 59 0
270 -52 -56 -60 0
271 -53 -54 -61 0
272 -53 -55 -62 0
273 -53 -56 -63 0
274 -54 -55 -64 0
274 54 55 64 0
275 -54 -56 -65 0
276 -55 -56 -66 0
277 -57 -58 -61 0
278 -57 -59 -62 0
279 -57 -60 -63 0
280 -58 -59 -64 0
281 -58 -60 -65 0
282 -59 -60 -66 0
282 59 60 66 0
283 -61 -62 -64 0
284 -61 -63 -65 0
285 -62 -63 -66 0
286 -64 -65 -66 0
-67 -203 -267 -286 0
-67 -203 -269 -284 0
-67 -203 -270 -283 0
-67 -203 -271 -282 0
-67 -203 -272 -281 0
-67 -203 -273 -280 0
-67 -203 -274 -279 0
-67 -203 -275 -278 0
-67 -203 -276 -277 0
-67 -204 -259 -284 0
-67 -204 -261 -282 0
-67 -204 -262 -281 0
-67 -204 -263 -280 0
-67 -204 -264 -279 0
-67 -204 -265 -278 0
-67 -204 -266 -277 0
-67 -205 -261 -276 0
-67 -205 -262 -275 0
-67 -205 -263 -274 0
-67 -205 -264 -273 0
-67 -205 -265 -272 0
-67 -205 -266 -271 0
-67 -206 -264 -270 0
-67 -206 -265 -269 0
-67 -208 -261 -270 0
-67 -209 -261 -269 0
-67 -209 -262 -268 0
-67 -209 -264 -267 0
-67 -214 -246 -270 0
-67 -214 -248 -268 0
-67 -215 -242 -274 0
-67 -215 -244 -271 0
-67 -215 -247 -268 0
-67 -219 -248 -258 0
-67 -221 -236 -274 0
-67 -221 -239 -266 0
-67 -221 -240 -265 0
-67 -221 -241 -264 0
-67 -222 -233 -276 0
-67 -222 -238 -266 0
-67 -223 -236 -271 0
-67 -223 -239 -263 0
-67 -224 -233 -274 0
-67 -224 -234 -272 0
-67 -224 -235 -271 0
-67 -224 -239 -262 0
-67 -225 -235 -270 0
-67 -225 -236 -269 0
-67 -226 -236 -268 0
-67 -227 -235 -268 0
-67 -228 -236 -267 0
-68 -175 -267 -286 0
-68 -175 -269 -284 0
-68 -175 -270 -283 0
-68 -175 -271 -282 0
-68 -175 -272 -281 0
-68 -175 -273 -280 0
-68 -175 -274 -279 0
-68 -175 -275 -278 0
-68 -175 -276 -277 0
-68 -176 -259 -284 0
-68 -176 -261 -282 0
-68 -176 -262 -281 0
-68 -176 -263 -280 0
-68 -176 -264 -279 0
-68 -176 -265 -278 0
-68 -176 -266 -277 0
-68 -177 -255 -284 0
-68 -177 -261 -276 0
-68 -177 -262 -275 0
-68 -177 -263 -274 0
-68 -177 -264 -273 0
-68 -177 -265 -272 0
-68 -177 -266 -271 0
-68 -178 -264 -270 0
-68 -178 -265 -269 0
-68 -178 -266 -268 0
-68 -179 -263 -269 0
-68 -179 -266 -267 0
-68 -180 -263 -268 0
-68 -180 -265 -267 0
-68 -181 -262 -268 0
-68 -181 -264 -267 0
-68 -183 -248 -274 0
-68 -184 -240 -281 0
-68 -184 -243 -276 0
-68 -184 -244 -275 0
-68 -184 -245 -274 0
-68 -184 -249 -270 0
-68 -184 -250 -269 0
-68 -184 -251 -268 0
-68 -185 -238 -282 0
-68 -185 -240 -279 0
-68 -185 -241 -278 0
-68 -185 -242 -276 0
-68 -185 -244 -273 0
-68 -185 -245 -272 0
-68 -185 -248 -269 0
-68 -185 -251 -267 0
-68 -186 -243 -273 0
-68 -187 -247 -268 0
-68 -188 -251 -261 0
-68 -189 -235 -281 0
-68 -189 -236 -280 0
-68 -189 -243 -266 0
-68 -189 -244 -265 0
-68 -189 -245 -264 0
-68 -190 -235 -279 0
-68 -190 -236 -278 0
-68 -190 -242 -266 0
-68 -190 -244 -263 0
-68 -190 -245 -262 0
-68 -191 -234 -279 0
-68 -191 -243 -263 0
-68 -192 -235 -277 0
-68 -192 -244 -261 0
-68 -193 -236 -274 0
-68 -196 -238 -264 0
-68 -197 -235 -270 0
-68 -202 -233 -268 0
-69 -168 -267 -286 0
-69 -168 -269 -284 0
-69 -168 -270 -283 0
-69 -168 -271 -282 0
-69 -168 -272 -281 0
-69 -168 -273 -280 0
-69 -168 -274 -279 0
-69 -168 -275 -278 0
-69 -168 -276 -277 0
-69 -169 -259 -284 0
-69 -169 -261 -282 0
-69 -169 -262 -281 0
-69 -169 -263 -280 0
-69 -169 -264 -279 0
-69 -169 -265 -278 0
-69 -169 -266 -277 0
-69 -170 -255 -284 0
-69 -170 -261 -276 0
-69 -170 -262 -275 0
-69 -170 -263 -274 0
-69 -170 -264 -273 0
-69 -170 -265 -272 0
-69 -170 -266 -271 0
-69 -171 -264 -270 0
-69 -171 -265 -269 0
-69 -171 -266 -268 0
-69 -172 -263 -269 0
-69 -172 -266 -267 0
-69 -173 -254 -279 0
-69 -173 -263 -268 0
-69 -173 -265 -267 0
-69 -174 -258 -272 0
-69 -174 -262 -268 0
-69 -174 -264 -267 0
-69 -182 -227 -280 0
-69 -182 -229 -278 0
-69 -182 -230 -277 0
-69 -183 -227 -274 0
-69 -183 -229 -272 0
-69 -183 -230 -271 0
-69 -184 -218 -282 0
-69 -184 -219 -281 0
-69 -184 -220 -280 0
-69 -184 -222 -276 0
-69 -184 -223 -275 0
-69 -184 -224 -274 0
-69 -184 -228 -270 0
-69 -184 -229 -269 0
-69 -184 -230 -268 0
-69 -185 -217 -282 0
-69 -185 -219 -279 0
-69 -185 -220 -278 0
-69 -185 -221 -276 0
-69 -185 -223 -273 0
-69 -185 -224 -272 0
-69 -185 -226 -270 0
-69 -185 -227 -269 0
-69 -185 -230 -267 0
-69 -186 -220 -277 0
-69 -186 -222 -273 0
-69 -186 -224 -271 0
-69 -186 -227 -268 0
-69 -186 -229 -267 0
-69 -187 -217 -280 0
-69 -187 -219 -277 0
-69 -187 -222 -272 0
-69 -187 -226 -268 0
-69 -187 -228 -267 0
-69 -188 -225 -266 0
-69 -189 -213 -282 0
-69 -189 -214 -281 0
-69 -189 -215 -280 0
-69 -189 -222 -266 0
-69 -189 -223 -265 0
-69 -189 -224 -264 0
-69 -190 -211 -285 0
-69 -190 -212 -282 0
-69 -190 -214 -279 0
-69 -190 -215 -278 0
-69 -190 -221 -266 0
-69 -190 -223 -263 0
-69 -190 -224 -262 0
-69 -191 -213 -279 0
-69 -191 -215 -277 0
-69 -191 -221 -265 0
-69 -191 -222 -263 0
-69 -191 -224 -261 0
-69 -192 -214 -277 0
-69 -192 -221 -264 0
-69 -192 -223 -261 0
-69 -193 -215 -274 0
-69 -195 -213 -273 0
-69 -196 -212 -274 0
-69 -197 -211 -276 0
-69 -198 -216 -265 0
-69 -199 -211 -274 0
-69 -200 -211 -273 0
-69 -201 -211 -272 0
-69 -202 -212 -268 0
-79 -153 -205 -286 0
-79 -154 -205 -285 0
-79 -156 -205 -283 0
-79 -157 -204 -286 0
-79 -158 -204 -285 0
-79 -159 -204 -284 0
-79 -159 -207 -273 0
-79 -160 -204 -283 0
-79 -161 -208 -270 0
-79 -161 -209 -269 0
-79 -161 -219 -245 0
-79 -161 -220 -244 0
-79 -162 -207 -270 0
-79 -162 -209 -268 0
-79 -162 -220 -243 0
-79 -162 -222 -241 0
-79 -163 -207 -269 0
-79 -163 -208 -268 0
-79 -163 -219 -243 0
-79 -163 -222 -240 0
-79 -164 -206 -270 0
-79 -164 -209 -267 0
-79 -164 -220 -242 0
-79 -165 -206 -269 0
-79 -165 -208 -267 0
-79 -165 -219 -242 0
-79 -165 -223 -238 0
-79 -166 -206 -268 0
-79 -166 -207 -267 0
-79 -166 -217 -243 0
-79 -166 -218 -242 0
-79 -166 -222 -238 0
-80 -147 -227 -249 0
-80 -157 -207 -266 0
-80 -157 -209 -264 0
-80 -157 -228 -236 0
-80 -157 -229 -235 0
-80 -158 -203 -285 0
-80 -158 -215 -247 0
-80 -158 -226 -236 0
-80 -158 -227 -235 0
-80 -159 -207 -263 0
-80 -159 -215 -246 0
-80 -159 -225 -236 0
-80 -160 -208 -261 0
-80 -161 -223 -236 0
-80 -162 -209 -258 0
-80 -162 -222 -236 0
-80 -163 -207 -259 0
-80 -163 -208 -258 0
-80 -163 -222 -235 0
-80 -164 -221 -236 0
-80 -165 -206 -259 0
-80 -165 -208 -257 0
-80 -165 -214 -242 0
-80 -165 -221 -235 0
-80 -165 -223 -233 0
-80 -166 -206 -258 0
-80 -166 -222 -233 0
-81 -161 -208 -256 0
-81 -161 -219 -236 0
-81 -162 -209 -254 0
-81 -164 -206 -256 0
-87 -153 -202 -243 0
-87 -159 -201 -238 0
-87 -160 -197 -240 0
-87 -161 -180 -270 0
-87 -161 -181 -269 0
-87 -161 -188 -251 0
-87 -162 -181 -268 0
-87 -162 -190 -245 0
-87 -163 -179 -269 0
-87 -163 -180 -268 0
-87 -163 -188 -249 0
-87 -163 -190 -244 0
-87 -164 -181 -267 0
-87 -165 -178 -269 0
-87 -165 -180 -267 0
-87 -165 -189 -244 0
-87 -166 -179 -267 0
-87 -166 -190 -242 0
-87 -166 -194 -238 0
-88 -158 -180 -263 0
-88 -161 -195 -236 0
-88 -162 -183 -250 0
-88 -164 -183 -248 0
-88 -166 -178 -258 0
-88 -166 -183 -246 0
-89 -149 -178 -276 0
-89 -151 -179 -272 0
-89 -154 -198 -236 0
-89 -155 -178 -265 0
-89 -155 -179 -263 0
-89 -156 -178 -264 0
-89 -156 -179 -262 0
-89 -161 -186 -241 0
-89 -162 -181 -254 0
-89 -162 -185 -241 0
-89 -162 -187 -239 0
-89 -162 -190 -236 0
-89 -163 -186 -239 0
-89 -163 -190 -235 0
-89 -164 -184 -241 0
-89 -164 -189 -236 0
-89 -164 -192 -233 0
-89 -165 -184 -240 0
-89 -165 -189 -235 0
-89 -165 -191 -233 0
-89 -166 -184 -239 0
-89 -166 -185 -238 0
-94 -153 -196 -228 0
-94 -153 -202 -222 0
-94 -157 -174 -274 0
-94 -160 -190 -226 0
-94 -161 -173 -270 0
-94 -161 -174 -269 0
-94 -161 -192 -223 0
-94 -161 -196 -219 0
-94 -162 -172 -270 0
-94 -162 -174 -268 0
-94 -162 -196 -218 0
-94 -163 -172 -269 0
-94 -163 -173 -268 0
-94 -163 -188 -228 0
-94 -163 -190 -223 0
-94 -164 -174 -267 0
-94 -164 -188 -227 0
-94 -164 -196 -217 0
-94 -165 -171 -269 0
-94 -165 -173 -267 0
-94 -166 -172 -267 0
-94 -166 -190 -221 0
-94 -166 -193 -218 0
-95 -150 -193 -229 0
-95 -158 -173 -263 0
-95 -158 -174 -262 0
-95 -160 -185 -226 0
-95 -161 -174 -259 0
-95 -161 -183 -230 0
-95 -162 -174 -258 0
-95 -162 -183 -229 0
-95 -163 -185 -223 0
-95 -163 -195 -213 0
-95 -164 -183 -227 0
-95 -164 -184 -224 0
-95 -165 -184 -223 0
-95 -166 -171 -258 0
-95 -166 -183 -225 0
-95 -166 -184 -222 0
-95 -166 -185 -221 0
-95 -166 -193 -213 0
-96 -151 -172 -272 0
-96 -155 -171 -265 0
-96 -155 -172 -263 0
-96 -156 -172 -262 0
-96 -162 -187 -218 0
-96 -162 -190 -215 0
-96 -163 -186 -218 0
-96 -163 -190 -214 0
-96 -166 -171 -254 0
-96 -166 -184 -218 0
-101 -157 -167 -286 0
-101 -158 -167 -285 0
-101 -159 -167 -284 0
-101 -160 -167 -283 0
-101 -161 -167 -282 0
-101 -162 -167 -281 0
-101 -163 -167 -280 0
-101 -164 -167 -279 0
-101 -165 -167 -278 0
-101 -166 -167 -277 0
-102 -153 -167 -286 0
-102 -154 -167 -285 0
-102 -155 -167 -284 0
-102 -156 -167 -283 0
-102 -161 -167 -276 0
-102 -162 -167 -275 0
-102 -163 -167 -274 0
-102 -164 -167 -273 0
-102 -165 -167 -272 0
-102 -166 -167 -271 0
-107 -148 -167 -286 0
-107 -149 -167 -285 0
-107 -149 -181 -226 0
-107 -149 -202 -206 0
-107 -150 -167 -284 0
-107 -150 -174 -246 0
-107 -150 -181 -225 0
-107 -151 -167 -283 0
-107 -161 -167 -266 0
-107 -161 -173 -236 0
-107 -161 -174 -235 0
-107 -161 -180 -215 0
-107 -161 -202 -203 0
-107 -162 -167 -265 0
-107 -163 -167 -264 0
-107 -163 -200 -203 0
-107 -164 -167 -263 0
-107 -165 -167 -262 0
-107 -166 -167 -261 0
-107 -166 -184 -207 0
-107 -166 -185 -206 0
-107 -166 -197 -203 0
-116 -146 -167 -282 0
-116 -146 -170 -251 0
-116 -146 -173 -245 0
-116 -146 -177 -230 0
-116 -146 -180 -224 0
-116 -146 -202 -205 0
-116 -147 -167 -276 0
-116 -147 -169 -251 0
-116 -147 -176 -230 0
-116 -147 -202 -204 0
-116 -150 -167 -270 0
-116 -150 -169 -245 0
-116 -150 -170 -241 0
-116 -150 -176 -224 0
-116 -150 -192 -205 0
-116 -150 -196 -204 0
-116 -151 -167 -269 0
-116 -151 -169 -244 0
-116 -151 -170 -240 0
-116 -151 -176 -223 0
-116 -151 -177 -219 0
-116 -151 -191 -205 0
-116 -151 -195 -204 0
-116 -152 -167 -266 0
-116 -152 -168 -251 0
-116 -152 -175 -230 0
-116 -152 -202 -203 0
-116 -155 -167 -260 0
-116 -155 -168 -245 0
-116 -155 -170 -236 0
-116 -155 -175 -224 0
-116 -155 -177 -215 0
-116 -155 -183 -209 0
-116 -155 -187 -205 0
-116 -155 -196 -203 0
-116 -156 -167 -259 0
-116 -156 -170 -235 0
-116 -156 -175 -223 0
-116 -156 -186 -205 0
-116 -156 -195 -203 0
-116 -159 -167 -256 0
-116 -159 -168 -241 0
-116 -159 -169 -236 0
-116 -159 -175 -220 0
-116 -159 -176 -215 0
-116 -159 -182 -209 0
-116 -159 -187 -204 0
-116 -159 -192 -203 0
-116 -160 -167 -255 0
-116 -160 -169 -235 0
-116 -160 -176 -214 0
-116 -160 -182 -208 0
-116 -160 -186 -204 0
-116 -160 -191 -203 0
-116 -166 -168 -237 0
-116 -166 -169 -232 0
-116 -166 -170 -231 0
-116 -166 -175 -216 0
-116 -166 -176 -211 0
-116 -166 -177 -210 0
-116 -166 -182 -205 0
-116 -166 -183 -204 0
-116 -166 -188 -203 0
-117 -146 -167 -281 0
-117 -146 -170 -250 0
-117 -146 -177 -229 0
-117 -146 -194 -209 0
-117 -146 -196 -207 0
-117 -146 -201 -205 0
-117 -147 -167 -275 0
-117 -147 -169 -250 0
-117 -147 -176 -229 0
-117 -147 -201 -204 0
-117 -149 -167 -270 0
-117 -149 -169 -245 0
-117 -149 -170 -241 0
-117 -149 -176 -224 0
-117 -149 -177 -220 0
-117 -149 -192 -205 0
-117 -149 -196 -204 0
-117 -151 -167 -268 0
-117 -151 -169 -243 0
-117 -151 -170 -239 0
-117 -151 -176 -222 0
-117 -151 -177 -218 0
-117 -151 -188 -207 0
-117 -151 -190 -205 0
-117 -151 -194 -204 0
-117 -152 -167 -265 0
-117 -152 -168 -250 0
-117 -152 -175 -229 0
-117 -152 -187 -207 0
-117 -152 -201 -203 0
-117 -154 -167 -260 0
-117 -154 -168 -245 0
-117 -154 -170 -236 0
-117 -154 -175 -224 0
-117 -154 -183 -209 0
-117 -154 -187 -205 0
-117 -154 -196 -203 0
-117 -156 -167 -258 0
-117 -156 -168 -243 0
-117 -156 -170 -234 0
-117 -156 -175 -222 0
-117 -156 -185 -205 0
-117 -158 -167 -256 0
-117 -158 -168 -241 0
-117 -158 -169 -236 0
-117 -158 -175 -220 0
-117 -158 -176 -215 0
-117 -158 -182 -209 0
-117 -158 -187 -204 0
-117 -158 -192 -203 0
-117 -160 -167 -254 0
-117 -160 -168 -239 0
-117 -160 -169 -234 0
-117 -160 -175 -218 0
-117 -160 -176 -213 0
-117 -160 -182 -207 0
-117 -160 -185 -204 0
-117 -160 -190 -203 0
-117 -165 -168 -237 0
-117 -165 -169 -232 0
-117 -165 -175 -216 0
-117 -165 -176 -211 0
-117 -165 -177 -210 0
-117 -165 -182 -205 0
-117 -165 -183 -204 0
-117 -165 -188 -203 0
-118 -146 -167 -280 0
-118 -146 -170 -249 0
-118 -146 -177 -228 0
-118 -146 -194 -208 0
-118 -146 -200 -205 0
-118 -147 -167 -274 0
-118 -147 -169 -249 0
-118 -147 -176 -228 0
-118 -147 -200 -204 0
-118 -149 -167 -269 0
-118 -149 -169 -244 0
-118 -149 -170 -240 0
-118 -149 -176 -223 0
-118 -149 -177 -219 0
-118 -149 -188 -208 0
-118 -149 -191 -205 0
-118 -149 -195 -204 0
-118 -150 -167 -268 0
-118 -150 -169 -243 0
-118 -150 -176 -222 0
-118 -150 -177 -218 0
-118 -150 -194 -204 0
-118 -152 -167 -264 0
-118 -152 -168 -249 0
-118 -152 -175 -228 0
-118 -152 -200 -203 0
-118 -154 -167 -259 0
-118 -154 -168 -244 0
-118 -154 -170 -235 0
-118 -154 -175 -223 0
-118 -154 -177 -214 0
-118 -154 -186 -205 0
-118 -154 -195 -203 0
-118 -155 -167 -258 0
-118 -155 -170 -234 0
-118 -155 -175 -222 0
-118 -155 -177 -213 0
-118 -155 -185 -205 0
-118 -155 -194 -203 0
-118 -158 -167 -255 0
-118 -158 -168 -240 0
-118 -158 -169 -235 0
-118 -158 -175 -219 0
-118 -158 -176 -214 0
-118 -158 -182 -208 0
-118 -158 -186 -204 0
-118 -158 -191 -203 0
-118 -159 -167 -254 0
-118 -159 -168 -239 0
-118 -159 -169 -234 0
-118 -159 -175 -218 0
-118 -159 -176 -213 0
-118 -159 -182 -207 0
-118 -159 -185 -204 0
-118 -159 -190 -203 0
-118 -164 -168 -237 0
-118 -164 -169 -232 0
-118 -164 -170 -231 0
-118 -164 -176 -211 0
-118 -164 -182 -205 0
-118 -164 -183 -204 0
-118 -164 -188 -203 0
-119 -146 -167 -279 0
-119 -146 -170 -248 0
-119 -146 -171 -245 0
-119 -146 -177 -227 0
-119 -146 -199 -205 0
-119 -147 -167 -273 0
-119 -147 -169 -248 0
-119 -147 -176 -227 0
-119 -147 -189 -209 0
-119 -147 -199 -204 0
-119 -148 -167 -270 0
-119 -148 -169 -245 0
-119 -148 -170 -241 0
-119 -148 -176 -224 0
-119 -148 -177 -220 0
-119 -148 -188 -209 0
-119 -148 -196 -204 0
-119 -151 -167 -267 0
-119 -151 -170 -238 0
-119 -151 -176 -221 0
-119 -151 -177 -217 0
-119 -151 -188 -206 0
-119 -151 -193 -204 0
-119 -152 -167 -263 0
-119 -152 -168 -248 0
-119 -152 -175 -227 0
-119 -152 -184 -209 0
-119 -152 -199 -203 0
-119 -153 -167 -260 0
-119 -153 -168 -245 0
-119 -153 -170 -236 0
-119 -153 -177 -215 0
-119 -153 -183 -209 0
-119 -153 -187 -205 0
-119 -153 -196 -203 0
-119 -156 -167 -257 0
-119 -156 -168 -242 0
-119 -156 -170 -233 0
-119 -156 -177 -212 0
-119 -156 -184 -205 0
-119 -156 -193 -203 0
-119 -157 -167 -256 0
-119 -157 -169 -236 0
-119 -157 -176 -215 0
-119 -157 -182 -209 0
-119 -157 -187 -204 0
-119 -160 -167 -253 0
-119 -160 -168 -238 0
-119 -160 -169 -233 0
-119 -160 -175 -217 0
-119 -160 -176 -212 0
-119 -160 -182 -206 0
-119 -160 -184 -204 0
-119 -160 -189 -203 0
-119 -163 -168 -237 0
-119 -163 -169 -232 0
-119 -163 -170 -231 0
-119 -163 -175 -216 0
-119 -163 -176 -211 0
-119 -163 -177 -210 0
-119 -163 -182 -205 0
-119 -163 -183 -204 0
-119 -163 -188 -203 0
-120 -146 -167 -278 0
-120 -146 -170 -247 0
-120 -146 -177 -226 0
-120 -146 -198 -205 0
-120 -147 -167 -272 0
-120 -147 -169 -247 0
-120 -147 -176 -226 0
-120 -147 -198 -204 0
-120 -148 -167 -269 0
-120 -148 -169 -244 0
-120 -148 -170 -240 0
-120 -148 -176 -223 0
-120 -148 -177 -219 0
-120 -148 -191 -205 0
-120 -148 -195 -204 0
-120 -150 -167 -267 0
-120 -150 -170 -238 0
-120 -150 -176 -221 0
-120 -150 -177 -217 0
-120 -150 -189 -205 0
-120 -152 -167 -262 0
-120 -152 -168 -247 0
-120 -152 -175 -226 0
-120 -152 -198 -203 0
-120 -153 -167 -259 0
-120 -153 -168 -244 0
-120 -153 -170 -235 0
-120 -153 -175 -223 0
-120 -153 -177 -214 0
-120 -153 -183 -208 0
-120 -153 -186 -205 0
-120 -153 -195 -203 0
-120 -155 -167 -257 0
-120 -155 -168 -242 0
-120 -155 -170 -233 0
-120 -155 -175 -221 0
-120 -155 -177 -212 0
-120 -155 -183 -206 0
-120 -155 -184 -205 0
-120 -155 -193 -203 0
-120 -157 -167 -255 0
-120 -157 -168 -240 0
-120 -157 -169 -235 0
-120 -157 -175 -219 0
-120 -157 -176 -214 0
-120 -157 -182 -208 0
-120 -157 -191 -203 0
-120 -159 -167 -253 0
-120 -159 -168 -238 0
-120 -159 -169 -233 0
-120 -159 -175 -217 0
-120 -159 -176 -212 0
-120 -159 -182 -206 0
-120 -159 -184 -204 0
-120 -159 -189 -203 0
-120 -162 -169 -232 0
-120 -162 -170 -231 0
-120 -162 -175 -216 0
-120 -162 -182 -205 0
-120 -162 -183 -204 0
-120 -162 -188 -203 0
-121 -146 -167 -277 0
-121 -146 -170 -246 0
-121 -146 -177 -225 0
-121 -146 -178 -222 0
-121 -146 -197 -205 0
-121 -147 -167 -271 0
-121 -147 -169 -246 0
-121 -147 -176 -225 0
-121 -147 -178 -218 0
-121 -147 -197 -204 0
-121 -148 -167 -268 0
-121 -148 -169 -243 0
-121 -148 -170 -239 0
-121 -148 -176 -222 0
-121 -148 -177 -218 0
-121 -148 -190 -205 0
-121 -148 -194 -204 0
-121 -149 -167 -267 0
-121 -149 -169 -242 0
-121 -149 -170 -238 0
-121 -149 -176 -221 0
-121 -149 -177 -217 0
-121 -149 -188 -206 0
-121 -149 -189 -205 0
-121 -149 -193 -204 0
-121 -152 -167 -261 0
-121 -152 -168 -246 0
-121 -152 -175 -225 0
-121 -152 -197 -203 0
-121 -153 -167 -258 0
-121 -153 -170 -234 0
-121 -153 -175 -222 0
-121 -153 -177 -213 0
-121 -153 -185 -205 0
-121 -153 -194 -203 0
-121 -154 -167 -257 0
-121 -154 -168 -242 0
-121 -154 -170 -233 0
-121 -154 -175 -221 0
-121 -154 -177 -212 0
-121 -154 -184 -205 0
-121 -154 -193 -203 0
-121 -157 -167 -254 0
-121 -157 -168 -239 0
-121 -157 -169 -234 0
-121 -157 -175 -218 0
-121 -157 -176 -213 0
-121 -157 -182 -207 0
-121 -157 -185 -204 0
-121 -157 -190 -203 0
-121 -158 -167 -253 0
-121 -158 -168 -238 0
-121 -158 -169 -233 0
-121 -158 -175 -217 0
-121 -158 -176 -212 0
-121 -158 -182 -206 0
-121 -158 -184 -204 0
-121 -158 -189 -203 0
-121 -161 -168 -237 0
-121 -161 -169 -232 0
-121 -161 -170 -231 0
-121 -161 -175 -216 0
-121 -161 -176 -211 0
-121 -161 -182 -205 0
-121 -161 -183 -204 0
-121 -161 -188 -203 0
1 0
2 0
3 0
4 0
5 0
6 0
7 0
-8 0
-9 0
-10 0
-11 0
12 0
13 0
14 0
-15 0
-16 0
-17 0
-18 0
-19 0
-20 0
-21 0
