p cnf 286 912
-1 -2 -3 -12 -13 -22 0
-3 -4 -5 -31 -32 -39 0
-3 -4 -6 -31 -33 -40 0
-3 -4 -7 -31 -34 -41 0
-3 -5 -6 -32 -33 -46 0
-3 -5 -7 -32 -34 -47 0
-3 -6 -7 -33 -34 -52 0
-4 -5 -6 -39 -40 -46 0
-4 -5 -7 -39 -41 -47 0
-4 -6 -7 -40 -41 -52 0
-5 -6 -7 -46 -47 -52 0
8 9 10 61 62 64 0
8 9 11 61 63 65 0
8 10 11 62 63 66 0
9 10 11 64 65 66 0
-12 -18 -19 -27 -28 -61 0
-12 -18 -20 -27 -29 -62 0
-12 -19 -20 -28 -29 -64 0
-13 -18 -19 -35 -36 -61 0
-13 -18 -20 -35 -37 -62 0
-13 -19 -20 -36 -37 -64 0
14 15 16 39 40 46 0
14 15 17 39 41 47 0
14 15 21 39 45 51 0
14 16 17 40 41 52 0
14 16 21 40 45 56 0
14 17 21 41 45 60 0
15 16 17 46 47 52 0
15 16 21 46 51 56 0
15 17 21 47 51 60 0
16 17 21 52 56 60 0
-18 -19 -20 -61 -62 -64 0
22 23 24 31 32 39 0
22 23 25 31 33 40 0
22 23 26 31 34 41 0
22 23 27 31 35 42 0
22 23 28 31 36 43 0
22 23 29 31 37 44 0
22 23 30 31 38 45 0
22 24 25 32 33 46 0
22 24 26 32 34 47 0
22 24 27 32 35 48 0
22 24 28 32 36 49 0
22 24 29 32 37 50 0
22 24 30 32 38 51 0
22 25 26 33 34 52 0
22 25 27 33 35 53 0
22 25 28 33 36 54 0
22 25 29 33 37 55 0
22 25 30 33 38 56 0
22 26 27 34 35 57 0
22 26 28 34 36 58 0
22 26 29 34 37 59 0
22 26 30 34 38 60 0
22 27 28 35 36 61 0
22 27 29 35 37 62 0
22 27 30 35 38 63 0
22 28 29 36 37 64 0
23 24 27 39 42 48 0
23 24 28 39 43 49 0
23 24 29 39 44 50 0
23 25 27 40 42 53 0
23 25 28 40 43 54 0
23 25 29 40 44 55 0
23 26 27 41 42 57 0
23 26 28 41 43 58 0
23 26 29 41 44 59 0
23 27 29 42 44 62 0
23 28 29 43 44 64 0
24 25 27 46 48 53 0
24 25 28 46 49 54 0
24 25 29 46 50 55 0
24 26 28 47 49 58 0
24 26 29 47 50 59 0
25 26 27 52 53 57 0
25 26 28 52 54 58 0
25 26 29 52 55 59 0
-31 -34 -35 -41 -42 -57 0
31 35 36 42 43 61 0
31 36 37 43 44 64 0
-31 -37 -38 -44 -45 -66 0
32 35 36 48 49 61 0
32 36 37 49 50 64 0
33 35 36 53 54 61 0
33 35 37 53 55 62 0
33 36 37 54 55 64 0
34 35 36 57 58 61 0
34 35 37 57 59 62 0
34 36 37 58 59 64 0
-34 -36 -38 -58 -60 -65 0
-34 -37 -38 -59 -60 -66 0
-39 -42 -43 -48 -49 -61 0
39 42 43 48 49 61 0
-39 -42 -44 -48 -50 -62 0
-39 -43 -44 -49 -50 -64 0
-40 -42 -43 -53 -54 -61 0
-40 -42 -44 -53 -55 -62 0
-40 -43 -45 -54 -56 -65 0
-41 -42 -43 -57 -58 -61 0
41 42 43 57 58 61 0
-41 -42 -44 -57 -59 -62 0
-42 -43 -45 -61 -63 -65 0
-46 -48 -49 -53 -54 -61 0
46 48 49 53 54 61 0
-46 -48 -50 -53 -55 -62 0
-46 -49 -50 -54 -55 -64 0
-47 -48 -49 -57 -58 -61 0
47 48 49 57 58 61 0
-47 -48 -50 -57 -59 -62 0
-52 -53 -54 -57 -58 -61 0
-52 -53 -55 -57 -59 -62 0
-52 -54 -55 -58 -59 -64 0
67 -1 -2 -12 0
68 -1 -3 -13 0
86 -3 -4 -31 0
87 -3 -5 -32 0
88 -3 -6 -33 0
89 -3 -7 -34 0
94 -4 -5 -39 0
95 -4 -6 -40 0
96 -4 -7 -41 0
101 -5 -6 -46 0
102 -5 -7 -47 0
107 -6 -7 -52 0
116 8 9 61 0
117 8 10 62 0
118 8 11 63 0
119 9 10 64 0
120 9 11 65 0
121 10 11 66 0
127 -12 -18 -27 0
128 -12 -19 -28 0
129 -12 -20 -29 0
135 -13 -18 -35 0
136 -13 -19 -36 0
137 -13 -20 -37 0
139 14 15 39 0
140 14 16 40 0
141 14 17 41 0
145 14 21 45 0
146 15 16 46 0
147 15 17 47 0
151 15 21 51 0
152 16 17 52 0
156 16 21 56 0
160 17 21 60 0
161 -18 -19 -61 0
162 -18 -20 -62 0
164 -19 -20 -64 0
167 22 23 31 0
168 22 24 32 0
169 22 25 33 0
170 22 26 34 0
171 22 27 35 0
172 22 28 36 0
173 22 29 37 0
174 22 30 38 0
175 23 24 39 0
176 23 25 40 0
177 23 26 41 0
178 23 27 42 0
179 23 28 43 0
180 23 29 44 0
181 23 30 45 0
182 24 25 46 0
183 24 26 47 0
184 24 27 48 0
185 24 28 49 0
186 24 29 50 0
188 25 26 52 0
189 25 27 53 0
190 25 28 54 0
191 25 29 55 0
193 26 27 57 0
194 26 28 58 0
195 26 29 59 0
199 -27 -30 -63 0
199 27 30 63 0
200 28 29 64 0
201 -28 -30 -65 0
202 -29 -30 -66 0
202 29 30 66 0
205 31 34 41 0
206 -31 -35 -42 0
206 31 35 42 0
207 31 36 43 0
208 -31 -37 -44 0
208 31 37 44 0
209 -31 -38 -45 0
209 31 38 45 0
211 -32 -34 -47 0
212 -32 -35 -48 0
212 32 35 48 0
213 -32 -36 -49 0
213 32 36 49 0
214 -32 -37 -50 0
214 32 37 50 0
215 -32 -38 -51 0
215 32 38 51 0
217 -33 -35 -53 0
217 33 35 53 0
218 -33 -36 -54 0
218 33 36 54 0
219 33 37 55 0
220 -33 -38 -56 0
220 33 38 56 0
221 -34 -35 -57 0
221 34 35 57 0
222 -34 -36 -58 0
222 34 36 58 0
223 34 37 59 0
224 -34 -38 -60 0
224 34 38 60 0
225 35 36 61 0
226 -35 -37 -62 0
226 35 37 62 0
227 -35 -38 -63 0
227 35 38 63 0
228 36 37 64 0
229 -36 -38 -65 0
229 36 38 65 0
230 -37 -38 -66 0
230 37 38 66 0
233 -39 -42 -48 0
233 39 42 48 0
234 -39 -43 -49 0
234 39 43 49 0
235 -39 -44 -50 0
235 39 44 50 0
236 -39 -45 -51 0
238 -40 -42 -53 0
238 40 42 53 0
239 -40 -43 -54 0
239 40 43 54 0
240 -40 -44 -55 0
240 40 44 55 0
241 -40 -45 -56 0
242 -41 -42 -57 0
242 41 42 57 0
243 -41 -43 -58 0
243 41 43 58 0
244 -41 -44 -59 0
244 41 44 59 0
245 -41 -45 -60 0
246 -42 -43 -61 0
246 42 43 61 0
247 -42 -44 -62 0
247 42 44 62 0
248 -42 -45 -63 0
248 42 45 63 0
249 -43 -44 -64 0
249 43 44 64 0
250 -43 -45 -65 0
250 43 45 65 0
251 -44 -45 -66 0
251 44 45 66 0
253 -46 -48 -53 0
253 46 48 53 0
254 -46 -49 -54 0
254 46 49 54 0
255 -46 -50 -55 0
255 46 50 55 0
256 -46 -51 -56 0
256 46 51 56 0
257 -47 -48 -57 0
257 47 48 57 0
258 -47 -49 -58 0
258 47 49 58 0
259 -47 -50 -59 0
259 47 50 59 0
260 -47 -51 -60 0
260 47 51 60 0
261 -48 -49 -61 0
261 48 49 61 0
262 -48 -50 -62 0
262 48 50 62 0
263 -48 -51 -63 0
263 48 51 63 0
264 -49 -50 -64 0
264 49 50 64 0
265 -49 -51 -65 0
265 49 51 65 0
266 -50 -51 -66 0
266 50 51 66 0
267 -52 -53 -57 0
267 52 53 57 0
268 -52 -54 -58 0
268 52 54 58 0
269 -52 -55 -59 0
269 52 55 59 0
270 -52 -56 -60 0
271 -53 -54 -61 0
271 53 54 61 0
272 -53 -55 -62 0
272 53 55 62 0
273 -53 -56 -63 0
273 53 56 63 0
274 -54 -55 -64 0
274 54 55 64 0
275 -54 -56 -65 0
275 54 56 65 0
276 -55 -56 -66 0
276 55 56 66 0
277 -57 -58 -61 0
277 57 58 61 0
278 -57 -59 -62 0
278 57 59 62 0
279 -57 -60 -63 0
280 -58 -59 -64 0
280 58 59 64 0
281 -58 -60 -65 0
281 58 60 65 0
282 -59 -60 -66 0
282 59 60 66 0
284 -61 -63 -65 0
285 -62 -63 -66 0
286 -64 -65 -66 0
-67 -209 -255 -277 0
-67 -212 -249 -270 0
-67 -213 -251 -267 0
-67 -214 -250 -267 0
-67 -225 -236 -269 0
-67 -226 -234 -270 0
-67 -226 -241 -258 0
-67 -226 -245 -254 0
-67 -228 -238 -260 0
-68 -175 -267 -286 0
-68 -175 -268 -285 0
-68 -175 -269 -284 0
-68 -175 -271 -282 0
-68 -175 -276 -277 0
-68 -176 -257 -286 0
-68 -176 -258 -285 0
-68 -176 -259 -284 0
-68 -177 -253 -286 0
-68 -177 -254 -285 0
-68 -182 -242 -286 0
-68 -182 -243 -285 0
-68 -182 -244 -284 0
-68 -183 -239 -285 0
-68 -183 -240 -284 0
-68 -188 -233 -286 0
-68 -188 -234 -285 0
-68 -188 -235 -284 0
-68 -188 -250 -262 0
-68 -201 -235 -267 0
-86 -127 -258 -276 0
-86 -128 -260 -272 0
-86 -128 -266 -267 0
-86 -129 -265 -267 0
-86 -146 -193 -286 0
-86 -146 -202 -277 0
-86 -147 -199 -274 0
-86 -147 -202 -271 0
-86 -152 -184 -286 0
-86 -161 -182 -282 0
-86 -161 -183 -276 0
-86 -161 -188 -266 0
-86 -162 -182 -281 0
-86 -162 -183 -275 0
-86 -162 -188 -265 0
-86 -164 -182 -279 0
-86 -164 -183 -273 0
-86 -164 -188 -263 0
-86 -164 -189 -260 0
-86 -164 -193 -256 0
-87 -128 -251 -267 0
-87 -129 -246 -270 0
-87 -129 -250 -267 0
-87 -140 -202 -277 0
-87 -141 -202 -271 0
-87 -152 -178 -286 0
-87 -152 -199 -249 0
-87 -156 -180 -277 0
-87 -160 -180 -271 0
-87 -161 -176 -282 0
-87 -161 -177 -276 0
-87 -161 -188 -251 0
-87 -162 -176 -281 0
-87 -162 -177 -275 0
-87 -162 -188 -250 0
-87 -164 -176 -279 0
-87 -164 -177 -273 0
-87 -164 -188 -248 0
-88 -139 -193 -286 0
-88 -139 -202 -277 0
-88 -141 -185 -285 0
-88 -141 -201 -262 0
-88 -147 -179 -285 0
-88 -161 -175 -282 0
-88 -161 -177 -266 0
-88 -161 -183 -251 0
-88 -162 -175 -281 0
-88 -162 -177 -265 0
-88 -162 -183 -250 0
-88 -164 -175 -279 0
-88 -164 -177 -263 0
-88 -164 -183 -248 0
-89 -139 -189 -286 0
-89 -140 -185 -285 0
-89 -140 -201 -262 0
-89 -140 -202 -261 0
-89 -146 -179 -285 0
-89 -146 -201 -247 0
-89 -161 -175 -276 0
-89 -161 -176 -266 0
-89 -161 -182 -251 0
-89 -162 -175 -275 0
-89 -162 -176 -265 0
-89 -162 -182 -250 0
-89 -164 -175 -273 0
-89 -164 -176 -263 0
-89 -164 -182 -248 0
-94 -128 -220 -278 0
-94 -128 -226 -270 0
-94 -129 -224 -271 0
-94 -129 -225 -270 0
-94 -135 -188 -286 0
-94 -136 -188 -285 0
-94 -137 -188 -284 0
-94 -152 -171 -286 0
-94 -152 -172 -285 0
-94 -152 -199 -228 0
-94 -152 -201 -226 0
-94 -152 -202 -225 0
-94 -156 -194 -226 0
-94 -156 -195 -225 0
-94 -160 -190 -226 0
-94 -160 -191 -225 0
-94 -161 -169 -282 0
-94 -161 -170 -276 0
-94 -161 -173 -270 0
-94 -161 -188 -230 0
-94 -162 -169 -281 0
-94 -162 -170 -275 0
-94 -162 -188 -229 0
-94 -164 -169 -279 0
-94 -164 -170 -273 0
-94 -164 -188 -227 0
-95 -127 -211 -286 0
-95 -127 -228 -260 0
-95 -128 -215 -278 0
-95 -128 -224 -262 0
-95 -128 -226 -260 0
-95 -135 -183 -286 0
-95 -136 -183 -285 0
-95 -137 -183 -284 0
-95 -137 -184 -281 0
-95 -147 -171 -286 0
-95 -147 -172 -285 0
-95 -147 -173 -284 0
-95 -147 -199 -228 0
-95 -147 -201 -226 0
-95 -147 -202 -225 0
-95 -151 -193 -228 0
-95 -151 -194 -226 0
-95 -160 -185 -226 0
-95 -160 -186 -225 0
-95 -161 -168 -282 0
-95 -161 -170 -266 0
-95 -161 -183 -230 0
-95 -162 -168 -281 0
-95 -162 -170 -265 0
-95 -162 -172 -260 0
-95 -162 -183 -229 0
-95 -164 -168 -279 0
-95 -164 -170 -263 0
-95 -164 -171 -260 0
-95 -164 -183 -227 0
-95 -164 -184 -224 0
-95 -164 -193 -215 0
-96 -128 -220 -262 0
-96 -128 -226 -256 0
-96 -135 -182 -286 0
-96 -136 -182 -285 0
-96 -137 -182 -284 0
-96 -137 -184 -275 0
-96 -137 -199 -254 0
-96 -146 -171 -286 0
-96 -146 -172 -285 0
-96 -146 -173 -284 0
-96 -146 -199 -228 0
-96 -146 -202 -225 0
-96 -151 -189 -228 0
-96 -151 -191 -225 0
-96 -156 -185 -226 0
-96 -161 -168 -276 0
-96 -161 -169 -266 0
-96 -161 -182 -230 0
-96 -162 -168 -275 0
-96 -162 -169 -265 0
-96 -162 -172 -256 0
-96 -162 -182 -229 0
-96 -164 -168 -273 0
-96 -164 -169 -263 0
-96 -164 -171 -256 0
-96 -164 -182 -227 0
-96 -164 -184 -220 0
-96 -164 -189 -215 0
-101 -128 -209 -278 0
-101 -128 -226 -245 0
-101 -128 -230 -242 0
-101 -129 -224 -246 0
-101 -135 -177 -286 0
-101 -136 -177 -285 0
-101 -137 -177 -284 0
-101 -137 -199 -243 0
-101 -141 -171 -286 0
-101 -141 -172 -285 0
-101 -141 -199 -228 0
-101 -141 -201 -226 0
-101 -141 -202 -225 0
-101 -145 -193 -228 0
-101 -145 -194 -226 0
-101 -145 -195 -225 0
-101 -160 -178 -228 0
-101 -160 -179 -226 0
-101 -160 -180 -225 0
-101 -161 -167 -282 0
-101 -161 -170 -251 0
-101 -161 -177 -230 0
-101 -161 -180 -224 0
-101 -162 -167 -281 0
-101 -162 -170 -250 0
-101 -162 -177 -229 0
-101 -164 -167 -279 0
-101 -164 -170 -248 0
-101 -164 -177 -227 0
-101 -164 -178 -224 0
-101 -164 -193 -209 0
-102 -127 -228 -241 0
-102 -128 -206 -276 0
-102 -128 -220 -247 0
-102 -128 -226 -241 0
-102 -129 -225 -241 0
-102 -135 -176 -286 0
-102 -136 -176 -285 0
-102 -137 -176 -284 0
-102 -140 -171 -286 0
-102 -140 -172 -285 0
-102 -140 -173 -284 0
-102 -140 -199 -228 0
-102 -140 -201 -226 0
-102 -140 -202 -225 0
-102 -145 -189 -228 0
-102 -145 -190 -226 0
-102 -145 -191 -225 0
-102 -156 -172 -247 0
-102 -156 -178 -228 0
-102 -156 -180 -225 0
-102 -161 -169 -251 0
-102 -161 -176 -230 0
-102 -162 -167 -275 0
-102 -162 -169 -250 0
-102 -162 -176 -229 0
-102 -164 -167 -273 0
-102 -164 -169 -248 0
-102 -164 -171 -241 0
-102 -164 -176 -227 0
-107 -127 -208 -265 0
-107 -127 -213 -251 0
-107 -127 -229 -235 0
-107 -128 -208 -263 0
-107 -128 -209 -262 0
-107 -128 -212 -251 0
-107 -128 -215 -247 0
-107 -128 -226 -236 0
-107 -128 -227 -235 0
-107 -129 -206 -265 0
-107 -135 -175 -286 0
-107 -136 -175 -285 0
-107 -137 -175 -284 0
-107 -137 -184 -250 0
-107 -139 -171 -286 0
-107 -139 -172 -285 0
-107 -139 -173 -284 0
-107 -139 -199 -228 0
-107 -139 -200 -227 0
-107 -139 -201 -226 0
-107 -139 -202 -225 0
-107 -145 -184 -228 0
-107 -145 -186 -225 0
-107 -151 -171 -249 0
-107 -151 -172 -247 0
-107 -151 -178 -228 0
-107 -151 -180 -225 0
-107 -161 -167 -266 0
-107 -161 -168 -251 0
-107 -161 -175 -230 0
-107 -162 -167 -265 0
-107 -162 -168 -250 0
-107 -162 -175 -229 0
-107 -164 -167 -263 0
-107 -164 -168 -248 0
-107 -164 -175 -227 0
-116 -137 -176 -260 0
-116 -137 -177 -256 0
-116 -137 -182 -245 0
-116 -137 -183 -241 0
-116 -137 -188 -236 0
-116 -139 -169 -282 0
-116 -139 -170 -276 0
-116 -139 -188 -230 0
-116 -140 -168 -282 0
-116 -140 -170 -266 0
-116 -140 -173 -260 0
-116 -140 -183 -230 0
-116 -140 -186 -224 0
-116 -141 -168 -276 0
-116 -141 -169 -266 0
-116 -141 -173 -256 0
-116 -141 -182 -230 0
-116 -141 -186 -220 0
-116 -141 -191 -215 0
-116 -145 -170 -255 0
-116 -145 -182 -223 0
-116 -145 -183 -219 0
-116 -145 -188 -214 0
-116 -146 -167 -282 0
-116 -146 -170 -251 0
-116 -146 -177 -230 0
-116 -146 -180 -224 0
-116 -146 -195 -209 0
-116 -147 -167 -276 0
-116 -147 -169 -251 0
-116 -147 -176 -230 0
-116 -147 -180 -220 0
-116 -147 -181 -219 0
-116 -147 -191 -209 0
-116 -151 -169 -244 0
-116 -151 -176 -223 0
-116 -151 -177 -219 0
-116 -151 -188 -208 0
-116 -152 -167 -266 0
-116 -152 -168 -251 0
-116 -152 -175 -230 0
-116 -152 -180 -215 0
-116 -152 -186 -209 0
-116 -156 -167 -259 0
-116 -156 -168 -244 0
-116 -156 -170 -235 0
-116 -156 -175 -223 0
-116 -160 -175 -219 0
-116 -160 -182 -208 0
-117 -136 -175 -270 0
-117 -136 -176 -260 0
-117 -136 -177 -256 0
-117 -136 -183 -241 0
-117 -136 -188 -236 0
-117 -139 -169 -281 0
-117 -139 -170 -275 0
-117 -139 -172 -270 0
-117 -139 -188 -229 0
-117 -139 -190 -224 0
-117 -139 -194 -220 0
-117 -140 -168 -281 0
-117 -140 -170 -265 0
-117 -140 -183 -229 0
-117 -140 -185 -224 0
-117 -140 -194 -215 0
-117 -141 -168 -275 0
-117 -141 -169 -265 0
-117 -141 -182 -229 0
-117 -145 -168 -268 0
-117 -145 -169 -258 0
-117 -145 -170 -254 0
-117 -145 -182 -222 0
-117 -145 -183 -218 0
-117 -145 -188 -213 0
-117 -146 -167 -281 0
-117 -146 -170 -250 0
-117 -146 -172 -245 0
-117 -146 -179 -224 0
-117 -146 -181 -222 0
-117 -146 -194 -209 0
-117 -147 -167 -275 0
-117 -147 -169 -250 0
-117 -147 -176 -229 0
-117 -147 -179 -220 0
-117 -147 -190 -209 0
-117 -151 -167 -268 0
-117 -151 -169 -243 0
-117 -151 -176 -222 0
-117 -151 -177 -218 0
-117 -152 -167 -265 0
-117 -152 -168 -250 0
-117 -152 -174 -234 0
-117 -152 -175 -229 0
-117 -152 -179 -215 0
-117 -152 -185 -209 0
-117 -156 -167 -258 0
-117 -156 -168 -243 0
-117 -156 -175 -222 0
-117 -156 -177 -213 0
-117 -156 -183 -207 0
-117 -160 -167 -254 0
-117 -160 -168 -239 0
-117 -160 -169 -234 0
-117 -160 -175 -218 0
-117 -160 -176 -213 0
-117 -160 -182 -207 0
-118 -136 -175 -269 0
-118 -136 -176 -259 0
-118 -136 -177 -255 0
-118 -136 -182 -244 0
-118 -136 -183 -240 0
-118 -136 -188 -235 0
-118 -137 -175 -268 0
-118 -137 -176 -258 0
-118 -137 -177 -254 0
-118 -137 -182 -243 0
-118 -137 -183 -239 0
-118 -137 -188 -234 0
-118 -139 -169 -280 0
-118 -139 -170 -274 0
-118 -139 -172 -269 0
-118 -139 -173 -268 0
-118 -139 -194 -219 0
-118 -139 -195 -218 0
-118 -140 -168 -280 0
-118 -140 -170 -264 0
-118 -140 -173 -258 0
-118 -140 -183 -228 0
-118 -140 -185 -223 0
-118 -141 -168 -274 0
-118 -141 -169 -264 0
-118 -141 -172 -255 0
-118 -141 -173 -254 0
-118 -141 -182 -228 0
-118 -141 -185 -219 0
-118 -141 -190 -214 0
-118 -146 -167 -280 0
-118 -146 -170 -249 0
-118 -146 -173 -243 0
-118 -146 -177 -228 0
-118 -146 -180 -222 0
-118 -147 -167 -274 0
-118 -147 -169 -249 0
-118 -147 -172 -240 0
-118 -147 -173 -239 0
-118 -147 -176 -228 0
-118 -152 -167 -264 0
-118 -152 -168 -249 0
-118 -152 -172 -235 0
-118 -152 -173 -234 0
-118 -152 -175 -228 0
-118 -152 -179 -214 0
-118 -152 -180 -213 0
-118 -152 -185 -208 0
-118 -164 -182 -205 0
-119 -135 -175 -270 0
-119 -135 -176 -260 0
-119 -135 -177 -256 0
-119 -135 -182 -245 0
-119 -135 -183 -241 0
-119 -135 -188 -236 0
-119 -139 -169 -279 0
-119 -139 -170 -273 0
-119 -139 -171 -270 0
-119 -139 -188 -227 0
-119 -139 -189 -224 0
-119 -139 -193 -220 0
-119 -140 -168 -279 0
-119 -140 -170 -263 0
-119 -140 -183 -227 0
-119 -140 -184 -224 0
-119 -140 -193 -215 0
-119 -141 -168 -273 0
-119 -141 -169 -263 0
-119 -141 -171 -256 0
-119 -141 -182 -227 0
-119 -141 -184 -220 0
-119 -145 -169 -257 0
-119 -145 -170 -253 0
-119 -145 -182 -221 0
-119 -145 -183 -217 0
-119 -145 -188 -212 0
-119 -146 -167 -279 0
-119 -146 -170 -248 0
-119 -146 -177 -227 0
-119 -146 -178 -224 0
-119 -146 -193 -209 0
-119 -147 -167 -273 0
-119 -147 -169 -248 0
-119 -147 -171 -241 0
-119 -147 -176 -227 0
-119 -147 -178 -220 0
-119 -147 -189 -209 0
-119 -151 -167 -267 0
-119 -151 -169 -242 0
-119 -151 -170 -238 0
-119 -151 -188 -206 0
-119 -152 -167 -263 0
-119 -152 -168 -248 0
-119 -152 -171 -236 0
-119 -152 -175 -227 0
-119 -152 -178 -215 0
-119 -152 -184 -209 0
-119 -156 -167 -257 0
-119 -156 -168 -242 0
-119 -156 -170 -233 0
-119 -156 -175 -221 0
-119 -156 -177 -212 0
-119 -156 -183 -206 0
-119 -160 -168 -238 0
-119 -160 -175 -217 0
-119 -160 -176 -212 0
-119 -160 -182 -206 0
-120 -135 -177 -255 0
-120 -135 -182 -244 0
-120 -135 -183 -240 0
-120 -135 -188 -235 0
-120 -137 -175 -267 0
-120 -137 -176 -257 0
-120 -137 -182 -242 0
-120 -137 -188 -233 0
-120 -139 -169 -278 0
-120 -139 -170 -272 0
-120 -139 -173 -267 0
-120 -139 -188 -226 0
-120 -139 -193 -219 0
-120 -140 -168 -278 0
-120 -140 -170 -262 0
-120 -140 -171 -259 0
-120 -140 -173 -257 0
-120 -140 -183 -226 0
-120 -140 -186 -221 0
-120 -141 -168 -272 0
-120 -141 -169 -262 0
-120 -141 -182 -226 0
-120 -146 -167 -278 0
-120 -146 -170 -247 0
-120 -146 -173 -242 0
-120 -146 -177 -226 0
-120 -146 -178 -223 0
-120 -146 -193 -208 0
-120 -147 -167 -272 0
-120 -147 -169 -247 0
-120 -147 -176 -226 0
-120 -147 -189 -208 0
-120 -152 -167 -262 0
-120 -152 -168 -247 0
-120 -152 -171 -235 0
-120 -152 -173 -233 0
-120 -152 -175 -226 0
-120 -152 -184 -208 0
-120 -152 -186 -206 0
-120 -162 -182 -205 0
-121 -135 -175 -268 0
-121 -135 -176 -258 0
-121 -135 -177 -254 0
-121 -135 -182 -243 0
-121 -135 -183 -239 0
-121 -135 -188 -234 0
-121 -136 -175 -267 0
-121 -136 -176 -257 0
-121 -136 -177 -253 0
-121 -136 -182 -242 0
-121 -136 -188 -233 0
-121 -139 -169 -277 0
-121 -139 -170 -271 0
-121 -139 -188 -225 0
-121 -139 -190 -221 0
-121 -140 -168 -277 0
-121 -140 -170 -261 0
-121 -140 -183 -225 0
-121 -140 -185 -221 0
-121 -140 -193 -213 0
-121 -141 -168 -271 0
-121 -141 -169 -261 0
-121 -141 -182 -225 0
-121 -146 -167 -277 0
-121 -146 -170 -246 0
-121 -146 -171 -243 0
-121 -146 -177 -225 0
-121 -146 -179 -221 0
-121 -147 -167 -271 0
-121 -147 -169 -246 0
-121 -147 -171 -239 0
-121 -147 -176 -225 0
-121 -152 -167 -261 0
-121 -152 -168 -246 0
-121 -152 -171 -234 0
-121 -152 -175 -225 0
-121 -152 -178 -213 0
-121 -152 -184 -207 0
-121 -161 -182 -205 0
1 0
2 0
3 0
4 0
5 0
6 0
7 0
-8 0
-9 0
-10 0
-11 0
12 0
13 0
-14 0
-15 0
-16 0
-17 0
18 0
19 0
20 0
-21 0
-23 0
-24 0
-25 0
-26 0
