p cnf 286 822
-1 -2 -3 -12 -13 -22 0
-1 -2 -4 -12 -14 -23 0
-1 -3 -4 -13 -14 -31 0
-2 -5 -6 -24 -25 -46 0
-2 -5 -7 -24 -26 -47 0
-2 -6 -7 -25 -26 -52 0
-3 -5 -6 -32 -33 -46 0
-3 -5 -7 -32 -34 -47 0
-3 -6 -7 -33 -34 -52 0
-4 -5 -6 -39 -40 -46 0
-4 -5 -7 -39 -41 -47 0
-4 -6 -7 -40 -41 -52 0
-5 -6 -7 -46 -47 -52 0
8 9 10 61 62 64 0
8 9 11 61 63 65 0
8 10 11 62 63 66 0
9 10 11 64 65 66 0
-12 -18 -19 -27 -28 -61 0
-12 -18 -20 -27 -29 -62 0
-12 -18 -21 -27 -30 -63 0
-12 -19 -20 -28 -29 -64 0
-12 -19 -21 -28 -30 -65 0
-12 -20 -21 -29 -30 -66 0
-13 -18 -19 -35 -36 -61 0
-13 -18 -20 -35 -37 -62 0
-13 -18 -21 -35 -38 -63 0
-13 -19 -20 -36 -37 -64 0
-13 -19 -21 -36 -38 -65 0
-13 -20 -21 -37 -38 -66 0
-14 -18 -19 -42 -43 -61 0
-14 -18 -20 -42 -44 -62 0
-14 -18 -21 -42 -45 -63 0
-14 -19 -20 -43 -44 -64 0
-14 -19 -21 -43 -45 -65 0
-14 -20 -21 -44 -45 -66 0
15 16 17 46 47 52 0
-18 -19 -20 -61 -62 -64 0
-18 -19 -21 -61 -63 -65 0
-18 -20 -21 -62 -63 -66 0
-19 -20 -21 -64 -65 -66 0
22 23 24 31 32 39 0
22 23 25 31 33 40 0
22 23 26 31 34 41 0
22 23 27 31 35 42 0
22 23 28 31 36 43 0
22 23 29 31 37 44 0
22 23 30 31 38 45 0
22 24 25 32 33 46 0
22 24 26 32 34 47 0
22 24 30 32 38 51 0
22 25 26 33 34 52 0
22 25 28 33 36 54 0
22 26 30 34 38 60 0
22 27 28 35 36 61 0
22 27 29 35 37 62 0
22 27 30 35 38 63 0
22 28 29 36 37 64 0
22 28 30 36 38 65 0
22 29 30 37 38 66 0
23 24 25 39 40 46 0
23 24 26 39 41 47 0
23 24 28 39 43 49 0
23 24 29 39 44 50 0
23 25 26 40 41 52 0
23 25 29 40 44 55 0
23 25 30 40 45 56 0
23 26 27 41 42 57 0
23 26 29 41 44 59 0
23 27 28 42 43 61 0
23 27 29 42 44 62 0
23 27 30 42 45 63 0
23 28 29 43 44 64 0
23 28 30 43 45 65 0
23 29 30 44 45 66 0
24 25 27 46 48 53 0
24 25 29 46 50 55 0
24 27 29 48 50 62 0
24 27 30 48 51 63 0
25 27 30 53 56 63 0
-25 -29 -30 -55 -56 -66 0
31 32 33 39 40 46 0
31 32 34 39 41 47 0
31 32 37 39 44 50 0
31 32 38 39 45 51 0
31 33 34 40 41 52 0
31 34 38 41 45 60 0
31 35 36 42 43 61 0
31 35 37 42 44 62 0
31 35 38 42 45 63 0
31 36 37 43 44 64 0
31 36 38 43 45 65 0
31 37 38 44 45 66 0
33 34 36 52 54 58 0
33 36 38 54 56 65 0
39 44 45 50 51 66 0
41 42 44 57 59 62 0
41 44 45 59 60 66 0
46 48 51 53 56 63 0
46 49 51 54 56 65 0
67 -1 -2 -12 0
68 -1 -3 -13 0
69 -1 -4 -14 0
79 -2 -5 -24 0
80 -2 -6 -25 0
81 -2 -7 -26 0
87 -3 -5 -32 0
88 -3 -6 -33 0
89 -3 -7 -34 0
94 -4 -5 -39 0
95 -4 -6 -40 0
96 -4 -7 -41 0
101 -5 -6 -46 0
102 -5 -7 -47 0
107 -6 -7 -52 0
116 8 9 61 0
117 8 10 62 0
118 8 11 63 0
119 9 10 64 0
120 9 11 65 0
121 10 11 66 0
127 -12 -18 -27 0
128 -12 -19 -28 0
129 -12 -20 -29 0
130 -12 -21 -30 0
135 -13 -18 -35 0
136 -13 -19 -36 0
137 -13 -20 -37 0
138 -13 -21 -38 0
142 -14 -18 -42 0
143 -14 -19 -43 0
144 -14 -20 -44 0
145 -14 -21 -45 0
146 15 16 46 0
147 15 17 47 0
152 16 17 52 0
161 -18 -19 -61 0
162 -18 -20 -62 0
163 -18 -21 -63 0
164 -19 -20 -64 0
165 -19 -21 -65 0
166 -20 -21 -66 0
167 22 23 31 0
168 22 24 32 0
169 22 25 33 0
170 22 26 34 0
171 22 27 35 0
172 22 28 36 0
173 22 29 37 0
174 22 30 38 0
175 23 24 39 0
176 23 25 40 0
177 23 26 41 0
178 23 27 42 0
179 23 28 43 0
180 23 29 44 0
181 23 30 45 0
182 24 25 46 0
183 24 26 47 0
184 -24 -27 -48 0
184 24 27 48 0
185 -24 -28 -49 0
185 24 28 49 0
186 -24 -29 -50 0
186 24 29 50 0
187 -24 -30 -51 0
187 24 30 51 0
188 25 26 52 0
189 -25 -27 -53 0
189 25 27 53 0
190 -25 -28 -54 0
190 25 28 54 0
191 -25 -29 -55 0
191 25 29 55 0
192 -25 -30 -56 0
192 25 30 56 0
193 -26 -27 -57 0
193 26 27 57 0
194 -26 -28 -58 0
194 26 28 58 0
195 -26 -29 -59 0
195 26 29 59 0
196 -26 -30 -60 0
196 26 30 60 0
197 27 28 61 0
198 27 29 62 0
199 27 30 63 0
200 28 29 64 0
201 28 30 65 0
202 29 30 66 0
203 31 32 39 0
204 31 33 40 0
205 31 34 41 0
206 31 35 42 0
207 31 36 43 0
208 31 37 44 0
209 31 38 45 0
210 32 33 46 0
211 32 34 47 0
212 -32 -35 -48 0
212 32 35 48 0
213 -32 -36 -49 0
213 32 36 49 0
214 -32 -37 -50 0
214 32 37 50 0
215 -32 -38 -51 0
215 32 38 51 0
216 33 34 52 0
217 -33 -35 -53 0
217 33 35 53 0
218 -33 -36 -54 0
218 33 36 54 0
219 -33 -37 -55 0
219 33 37 55 0
220 -33 -38 -56 0
220 33 38 56 0
221 -34 -35 -57 0
222 34 36 58 0
223 -34 -37 -59 0
223 34 37 59 0
224 -34 -38 -60 0
224 34 38 60 0
225 35 36 61 0
226 35 37 62 0
227 35 38 63 0
228 36 37 64 0
229 36 38 65 0
230 37 38 66 0
231 39 40 46 0
232 39 41 47 0
233 -39 -42 -48 0
233 39 42 48 0
234 -39 -43 -49 0
234 39 43 49 0
235 -39 -44 -50 0
235 39 44 50 0
236 -39 -45 -51 0
236 39 45 51 0
237 -40 -41 -52 0
237 40 41 52 0
238 -40 -42 -53 0
238 40 42 53 0
239 -40 -43 -54 0
239 40 43 54 0
240 -40 -44 -55 0
240 40 44 55 0
241 -40 -45 -56 0
241 40 45 56 0
242 -41 -42 -57 0
242 41 42 57 0
243 -41 -43 -58 0
243 41 43 58 0
244 41 44 59 0
245 -41 -45 -60 0
245 41 45 60 0
246 42 43 61 0
247 42 44 62 0
248 42 45 63 0
249 43 44 64 0
250 43 45 65 0
251 44 45 66 0
254 46 49 54 0
255 -46 -50 -55 0
256 -46 -51 -56 0
256 46 51 56 0
257 47 48 57 0
258 -47 -49 -58 0
259 -47 -50 -59 0
259 47 50 59 0
260 -47 -51 -60 0
260 47 51 60 0
261 -48 -49 -61 0
261 48 49 61 0
262 -48 -50 -62 0
262 48 50 62 0
263 -48 -51 -63 0
263 48 51 63 0
264 -49 -50 -64 0
264 49 50 64 0
265 -49 -51 -65 0
265 49 51 65 0
266 -50 -51 -66 0
266 50 51 66 0
268 52 54 58 0
269 52 55 59 0
270 -52 -56 -60 0
271 -53 -54 -61 0
271 53 54 61 0
272 -53 -55 -62 0
272 53 55 62 0
273 -53 -56 -63 0
273 53 56 63 0
274 -54 -55 -64 0
274 54 55 64 0
275 -54 -56 -65 0
275 54 56 65 0
276 -55 -56 -66 0
276 55 56 66 0
277 -57 -58 -61 0
277 57 58 61 0
278 -57 -59 -62 0
278 57 59 62 0
279 -57 -60 -63 0
279 57 60 63 0
280 -58 -59 -64 0
280 58 59 64 0
281 -58 -60 -65 0
281 58 60 65 0
282 -59 -60 -66 0
282 59 60 66 0
285 62 63 66 0
-67 -203 -271 -282 0
-67 -205 -266 -271 0
-67 -209 -259 -271 0
-67 -214 -245 -271 0
-67 -215 -244 -271 0
-67 -215 -247 -268 0
-67 -218 -247 -260 0
-67 -222 -247 -256 0
-67 -223 -236 -271 0
-67 -224 -235 -271 0
-67 -224 -247 -254 0
-68 -176 -262 -281 0
-68 -180 -260 -271 0
-68 -196 -247 -254 0
-68 -197 -245 -255 0
-68 -198 -234 -270 0
-69 -187 -223 -271 0
-69 -189 -230 -258 0
-69 -196 -214 -271 0
-69 -197 -223 -256 0
-79 -137 -245 -271 0
-79 -138 -247 -268 0
-79 -143 -223 -273 0
-79 -145 -219 -277 0
-79 -145 -223 -271 0
-79 -152 -225 -251 0
-79 -152 -226 -250 0
-79 -152 -227 -249 0
-79 -152 -228 -248 0
-79 -152 -229 -247 0
-79 -152 -230 -246 0
-79 -163 -218 -244 0
-79 -163 -219 -243 0
-79 -163 -223 -239 0
-79 -165 -223 -238 0
-79 -165 -226 -237 0
-80 -138 -247 -258 0
-80 -143 -223 -263 0
-80 -143 -230 -257 0
-80 -144 -221 -265 0
-80 -145 -223 -261 0
-80 -147 -225 -251 0
-80 -147 -226 -250 0
-80 -147 -227 -249 0
-80 -147 -228 -248 0
-80 -147 -229 -247 0
-80 -147 -230 -246 0
-80 -163 -223 -234 0
-80 -165 -223 -233 0
-81 -137 -236 -271 0
-81 -138 -247 -254 0
-81 -145 -214 -271 0
-81 -146 -225 -251 0
-81 -146 -226 -250 0
-81 -146 -227 -249 0
-81 -146 -228 -248 0
-81 -146 -229 -247 0
-81 -146 -230 -246 0
-81 -161 -208 -256 0
-81 -161 -219 -236 0
-81 -163 -219 -234 0
-87 -128 -240 -279 0
-87 -129 -241 -277 0
-87 -130 -244 -271 0
-87 -145 -197 -269 0
-87 -152 -197 -251 0
-87 -152 -198 -250 0
-87 -152 -199 -249 0
-87 -152 -200 -248 0
-87 -152 -201 -247 0
-87 -152 -202 -246 0
-87 -163 -190 -244 0
-87 -164 -196 -238 0
-87 -166 -190 -242 0
-88 -145 -197 -259 0
-88 -147 -179 -285 0
-88 -147 -197 -251 0
-88 -147 -198 -250 0
-88 -147 -199 -249 0
-88 -147 -200 -248 0
-88 -147 -201 -247 0
-88 -147 -202 -246 0
-88 -163 -194 -235 0
-88 -166 -184 -243 0
-88 -166 -194 -233 0
-89 -128 -247 -256 0
-89 -146 -197 -251 0
-89 -146 -198 -250 0
-89 -146 -199 -249 0
-89 -146 -200 -248 0
-89 -146 -201 -247 0
-89 -146 -202 -246 0
-89 -163 -180 -254 0
-94 -127 -223 -275 0
-94 -129 -225 -270 0
-94 -130 -223 -271 0
-94 -137 -196 -271 0
-94 -152 -197 -230 0
-94 -152 -198 -229 0
-94 -152 -199 -228 0
-94 -152 -200 -227 0
-94 -152 -201 -226 0
-94 -152 -202 -225 0
-94 -163 -190 -223 0
-94 -163 -194 -219 0
-95 -128 -226 -260 0
-95 -137 -197 -260 0
-95 -138 -197 -259 0
-95 -147 -197 -230 0
-95 -147 -198 -229 0
-95 -147 -199 -228 0
-95 -147 -200 -227 0
-95 -147 -201 -226 0
-95 -147 -202 -225 0
-95 -163 -172 -259 0
-95 -163 -185 -223 0
-96 -130 -214 -271 0
-96 -137 -187 -271 0
-96 -146 -197 -230 0
-96 -146 -198 -229 0
-96 -146 -199 -228 0
-96 -146 -200 -227 0
-96 -146 -201 -226 0
-96 -146 -202 -225 0
-101 -127 -230 -243 0
-101 -129 -229 -242 0
-101 -135 -180 -281 0
-101 -137 -199 -243 0
-101 -142 -174 -280 0
-101 -142 -195 -229 0
-101 -145 -197 -223 0
-101 -161 -167 -282 0
-101 -163 -167 -280 0
-101 -163 -172 -244 0
-101 -163 -180 -222 0
-101 -164 -167 -279 0
-101 -164 -171 -245 0
-101 -164 -178 -224 0
-101 -166 -167 -277 0
-101 -166 -178 -222 0
-101 -166 -193 -207 0
-102 -127 -228 -241 0
-102 -127 -230 -239 0
-102 -128 -208 -273 0
-102 -128 -217 -251 0
-102 -128 -219 -248 0
-102 -128 -220 -247 0
-102 -128 -226 -241 0
-102 -128 -230 -238 0
-102 -129 -229 -238 0
-102 -130 -208 -271 0
-102 -130 -225 -240 0
-102 -130 -228 -238 0
-102 -135 -179 -276 0
-102 -135 -192 -249 0
-102 -136 -189 -251 0
-102 -136 -199 -240 0
-102 -137 -199 -239 0
-102 -138 -178 -274 0
-102 -138 -180 -271 0
-102 -138 -189 -249 0
-102 -138 -190 -247 0
-102 -138 -197 -240 0
-102 -143 -171 -276 0
-102 -143 -174 -272 0
-102 -143 -189 -230 0
-102 -143 -198 -220 0
-102 -143 -202 -217 0
-102 -144 -189 -229 0
-102 -145 -171 -274 0
-102 -145 -189 -228 0
-102 -145 -191 -225 0
-102 -145 -197 -219 0
-102 -145 -200 -217 0
-102 -161 -167 -276 0
-102 -161 -181 -219 0
-102 -161 -192 -208 0
-102 -162 -167 -275 0
-102 -162 -172 -241 0
-102 -162 -174 -239 0
-102 -162 -179 -220 0
-102 -162 -181 -218 0
-102 -162 -190 -209 0
-102 -162 -192 -207 0
-102 -163 -167 -274 0
-102 -163 -179 -219 0
-102 -163 -180 -218 0
-102 -163 -191 -207 0
-102 -164 -167 -273 0
-102 -164 -178 -220 0
-102 -164 -192 -206 0
-102 -165 -167 -272 0
-102 -165 -171 -240 0
-102 -165 -173 -238 0
-102 -165 -180 -217 0
-102 -165 -189 -208 0
-102 -165 -191 -206 0
-102 -166 -167 -271 0
-102 -166 -171 -239 0
-102 -166 -178 -218 0
-102 -166 -189 -207 0
-107 -127 -214 -250 0
-107 -127 -229 -235 0
-107 -128 -212 -251 0
-107 -128 -214 -248 0
-107 -128 -226 -236 0
-107 -129 -207 -263 0
-107 -129 -209 -261 0
-107 -129 -212 -250 0
-107 -129 -225 -236 0
-107 -130 -207 -262 0
-107 -130 -225 -235 0
-107 -130 -226 -234 0
-107 -135 -185 -251 0
-107 -135 -186 -250 0
-107 -135 -187 -249 0
-107 -135 -200 -236 0
-107 -136 -181 -262 0
-107 -136 -186 -248 0
-107 -137 -179 -263 0
-107 -137 -181 -261 0
-107 -137 -184 -250 0
-107 -137 -185 -248 0
-107 -137 -197 -236 0
-107 -137 -199 -234 0
-107 -137 -201 -233 0
-107 -138 -178 -264 0
-107 -138 -179 -262 0
-107 -138 -180 -261 0
-107 -138 -184 -249 0
-107 -138 -185 -247 0
-107 -138 -198 -234 0
-107 -138 -200 -233 0
-107 -142 -172 -266 0
-107 -142 -173 -265 0
-107 -142 -174 -264 0
-107 -142 -185 -230 0
-107 -142 -186 -229 0
-107 -142 -187 -228 0
-107 -142 -200 -215 0
-107 -142 -201 -214 0
-107 -143 -173 -263 0
-107 -143 -198 -215 0
-107 -144 -171 -265 0
-107 -144 -184 -229 0
-107 -144 -185 -227 0
-107 -145 -198 -213 0
-107 -161 -167 -266 0
-107 -161 -173 -236 0
-107 -161 -174 -235 0
-107 -161 -180 -215 0
-107 -161 -181 -214 0
-107 -161 -186 -209 0
-107 -161 -187 -208 0
-107 -162 -167 -265 0
-107 -162 -168 -250 0
-107 -162 -181 -213 0
-107 -162 -187 -207 0
-107 -163 -167 -264 0
-107 -163 -172 -235 0
-107 -163 -179 -214 0
-107 -163 -180 -213 0
-107 -163 -185 -208 0
-107 -163 -186 -207 0
-107 -164 -167 -263 0
-107 -164 -171 -236 0
-107 -164 -174 -233 0
-107 -164 -178 -215 0
-107 -164 -181 -212 0
-107 -164 -184 -209 0
-107 -164 -187 -206 0
-107 -165 -180 -212 0
-107 -166 -167 -261 0
-107 -166 -171 -234 0
-107 -166 -178 -213 0
-107 -166 -179 -212 0
-107 -166 -184 -207 0
-107 -166 -185 -206 0
-116 -129 -205 -256 0
-116 -129 -220 -232 0
-116 -130 -210 -244 0
-116 -130 -216 -235 0
-116 -137 -182 -245 0
-116 -137 -187 -237 0
-116 -137 -192 -232 0
-116 -137 -196 -231 0
-116 -144 -182 -224 0
-116 -145 -182 -223 0
-116 -145 -195 -210 0
-116 -146 -167 -282 0
-116 -146 -170 -251 0
-116 -146 -174 -244 0
-116 -146 -177 -230 0
-116 -146 -180 -224 0
-116 -146 -181 -223 0
-116 -146 -196 -208 0
-116 -146 -202 -205 0
-116 -147 -167 -276 0
-116 -147 -169 -251 0
-116 -147 -173 -241 0
-116 -147 -174 -240 0
-116 -147 -176 -230 0
-116 -147 -180 -220 0
-116 -147 -181 -219 0
-116 -147 -191 -209 0
-116 -147 -192 -208 0
-116 -147 -202 -204 0
-116 -152 -167 -266 0
-116 -152 -168 -251 0
-116 -152 -173 -236 0
-116 -152 -174 -235 0
-116 -152 -175 -230 0
-116 -152 -180 -215 0
-116 -152 -181 -214 0
-116 -152 -186 -209 0
-116 -152 -187 -208 0
-116 -152 -202 -203 0
-116 -166 -170 -231 0
-116 -166 -177 -210 0
-116 -166 -182 -205 0
-116 -166 -183 -204 0
-117 -128 -210 -245 0
-117 -130 -211 -239 0
-117 -138 -176 -258 0
-117 -138 -177 -254 0
-117 -143 -168 -270 0
-117 -143 -192 -211 0
-117 -145 -190 -211 0
-117 -146 -167 -281 0
-117 -146 -170 -250 0
-117 -146 -172 -245 0
-117 -146 -174 -243 0
-117 -146 -177 -229 0
-117 -146 -181 -222 0
-117 -146 -194 -209 0
-117 -146 -196 -207 0
-117 -146 -201 -205 0
-117 -147 -167 -275 0
-117 -147 -169 -250 0
-117 -147 -172 -241 0
-117 -147 -174 -239 0
-117 -147 -176 -229 0
-117 -147 -179 -220 0
-117 -147 -181 -218 0
-117 -147 -190 -209 0
-117 -147 -192 -207 0
-117 -147 -201 -204 0
-117 -152 -167 -265 0
-117 -152 -168 -250 0
-117 -152 -172 -236 0
-117 -152 -174 -234 0
-117 -152 -175 -229 0
-117 -152 -179 -215 0
-117 -152 -181 -213 0
-117 -152 -185 -209 0
-117 -152 -187 -207 0
-117 -152 -201 -203 0
-117 -165 -175 -216 0
-118 -128 -214 -237 0
-118 -129 -213 -237 0
-118 -144 -188 -213 0
-118 -146 -167 -280 0
-118 -146 -170 -249 0
-118 -146 -177 -228 0
-118 -146 -179 -223 0
-118 -146 -194 -208 0
-118 -146 -195 -207 0
-118 -146 -200 -205 0
-118 -147 -167 -274 0
-118 -147 -169 -249 0
-118 -147 -172 -240 0
-118 -147 -173 -239 0
-118 -147 -176 -228 0
-118 -147 -179 -219 0
-118 -147 -180 -218 0
-118 -147 -190 -208 0
-118 -147 -191 -207 0
-118 -147 -200 -204 0
-118 -152 -167 -264 0
-118 -152 -168 -249 0
-118 -152 -172 -235 0
-118 -152 -173 -234 0
-118 -152 -175 -228 0
-118 -152 -179 -214 0
-118 -152 -180 -213 0
-118 -152 -186 -207 0
-118 -152 -200 -203 0
-118 -164 -170 -231 0
-118 -164 -175 -216 0
-118 -164 -182 -205 0
-118 -164 -183 -204 0
-119 -127 -215 -237 0
-119 -145 -184 -216 0
-119 -146 -167 -279 0
-119 -146 -170 -248 0
-119 -146 -174 -242 0
-119 -146 -177 -227 0
-119 -146 -178 -224 0
-119 -146 -196 -206 0
-119 -146 -199 -205 0
-119 -147 -167 -273 0
-119 -147 -169 -248 0
-119 -147 -171 -241 0
-119 -147 -174 -238 0
-119 -147 -176 -227 0
-119 -147 -178 -220 0
-119 -147 -181 -217 0
-119 -147 -189 -209 0
-119 -147 -192 -206 0
-119 -147 -199 -204 0
-119 -152 -167 -263 0
-119 -152 -168 -248 0
-119 -152 -174 -233 0
-119 -152 -175 -227 0
-119 -152 -178 -215 0
-119 -152 -181 -212 0
-119 -152 -184 -209 0
-119 -152 -187 -206 0
-119 -152 -199 -203 0
-119 -163 -170 -231 0
-119 -163 -177 -210 0
-120 -127 -219 -232 0
-120 -129 -217 -232 0
-120 -137 -182 -242 0
-120 -137 -189 -232 0
-120 -137 -193 -231 0
-120 -142 -182 -223 0
-120 -146 -167 -278 0
-120 -146 -170 -247 0
-120 -146 -177 -226 0
-120 -146 -178 -223 0
-120 -146 -180 -221 0
-120 -146 -193 -208 0
-120 -146 -198 -205 0
-120 -147 -167 -272 0
-120 -147 -169 -247 0
-120 -147 -171 -240 0
-120 -147 -173 -238 0
-120 -147 -176 -226 0
-120 -147 -178 -219 0
-120 -147 -180 -217 0
-120 -147 -189 -208 0
-120 -147 -191 -206 0
-120 -147 -198 -204 0
-120 -152 -167 -262 0
-120 -152 -168 -247 0
-120 -152 -171 -235 0
-120 -152 -173 -233 0
-120 -152 -175 -226 0
-120 -152 -178 -214 0
-120 -152 -180 -212 0
-120 -152 -184 -208 0
-120 -152 -186 -206 0
-120 -152 -198 -203 0
-120 -162 -169 -232 0
-120 -162 -170 -231 0
-120 -162 -177 -210 0
-120 -162 -182 -205 0
-121 -135 -182 -243 0
-121 -135 -185 -237 0
-121 -142 -188 -213 0
-121 -146 -167 -277 0
-121 -146 -170 -246 0
-121 -146 -171 -243 0
-121 -146 -177 -225 0
-121 -146 -194 -206 0
-121 -146 -197 -205 0
-121 -147 -167 -271 0
-121 -147 -169 -246 0
-121 -147 -171 -239 0
-121 -147 -172 -238 0
-121 -147 -176 -225 0
-121 -147 -178 -218 0
-121 -147 -179 -217 0
-121 -147 -189 -207 0
-121 -147 -190 -206 0
-121 -147 -197 -204 0
-121 -152 -167 -261 0
-121 -152 -168 -246 0
-121 -152 -171 -234 0
-121 -152 -172 -233 0
-121 -152 -175 -225 0
-121 -152 -178 -213 0
-121 -152 -179 -212 0
-121 -152 -184 -207 0
-121 -152 -185 -206 0
-121 -152 -197 -203 0
-121 -161 -168 -237 0
-121 -161 -175 -216 0
-121 -161 -177 -210 0
-121 -161 -183 -204 0
1 0
2 0
3 0
4 0
5 0
6 0
7 0
-8 0
-9 0
-10 0
-11 0
12 0
13 0
14 0
-15 0
-16 0
-17 0
18 0
19 0
20 0
21 0
