p cnf 286 374
-1 -2 -3 -12 -13 -22 0
-3 -4 -5 -31 -32 -39 0
-3 -4 -6 -31 -33 -40 0
-3 -4 -7 -31 -34 -41 0
-3 -4 -8 -31 -35 -42 0
-3 -5 -6 -32 -33 -46 0
-3 -5 -7 -32 -34 -47 0
-3 -5 -8 -32 -35 -48 0
-3 -6 -7 -33 -34 -52 0
-3 -6 -8 -33 -35 -53 0
-3 -7 -8 -34 -35 -57 0
-4 -5 -6 -39 -40 -46 0
-4 -5 -7 -39 -41 -47 0
-4 -5 -8 -39 -42 -48 0
-4 -6 -7 -40 -41 -52 0
-4 -6 -8 -40 -42 -53 0
-4 -7 -8 -41 -42 -57 0
-5 -6 -7 -46 -47 -52 0
-5 -6 -8 -46 -48 -53 0
-5 -7 -8 -47 -48 -57 0
-6 -7 -8 -52 -53 -57 0
14 15 16 39 40 46 0
14 15 17 39 41 47 0
14 15 18 39 42 48 0
14 16 17 40 41 52 0
14 16 18 40 42 53 0
14 17 18 41 42 57 0
14 17 21 41 45 60 0
15 16 17 46 47 52 0
15 16 18 46 48 53 0
15 17 18 47 48 57 0
16 17 18 52 53 57 0
16 17 21 52 56 60 0
17 20 21 59 60 66 0
22 24 25 32 33 46 0
22 24 26 32 34 47 0
22 24 27 32 35 48 0
22 25 26 33 34 52 0
22 25 27 33 35 53 0
22 26 27 34 35 57 0
22 26 28 34 36 58 0
22 26 29 34 37 59 0
22 26 30 34 38 60 0
-23 -28 -29 -43 -44 -64 0
-23 -28 -30 -43 -45 -65 0
25 26 30 52 56 60 0
26 29 30 59 60 66 0
31 34 36 41 43 58 0
31 34 37 41 44 59 0
31 34 38 41 45 60 0
34 36 37 58 59 64 0
34 36 38 58 60 65 0
-47 -49 -50 -58 -59 -64 0
-47 -49 -51 -58 -60 -65 0
52 55 56 59 60 66 0
67 -1 -2 -12 0
68 -1 -3 -13 0
78 -2 -4 -23 0
86 -3 -4 -31 0
87 -3 -5 -32 0
88 -3 -6 -33 0
89 -3 -7 -34 0
90 -3 -8 -35 0
94 -4 -5 -39 0
95 -4 -6 -40 0
96 -4 -7 -41 0
97 -4 -8 -42 0
101 -5 -6 -46 0
102 -5 -7 -47 0
107 -6 -7 -52 0
112 -7 -8 -57 0
119 9 10 64 0
120 9 11 65 0
121 10 11 66 0
129 -12 -20 -29 0
130 -12 -21 -30 0
137 -13 -20 -37 0
138 -13 -21 -38 0
139 14 15 39 0
140 14 16 40 0
141 14 17 41 0
142 14 18 42 0
146 15 16 46 0
147 15 17 47 0
148 15 18 48 0
152 16 17 52 0
153 16 18 53 0
155 16 20 55 0
156 16 21 56 0
157 17 18 57 0
168 22 24 32 0
169 22 25 33 0
170 22 26 34 0
171 22 27 35 0
172 22 28 36 0
173 22 29 37 0
179 -23 -28 -43 0
180 -23 -29 -44 0
181 -23 -30 -45 0
182 24 25 46 0
183 24 26 47 0
184 24 27 48 0
188 25 26 52 0
189 25 27 53 0
192 25 30 56 0
193 26 27 57 0
196 26 30 60 0
198 27 29 62 0
200 -28 -29 -64 0
205 31 34 41 0
207 31 36 43 0
208 31 37 44 0
209 31 38 45 0
213 -32 -36 -49 0
214 -32 -37 -50 0
214 32 37 50 0
215 -32 -38 -51 0
215 32 38 51 0
218 -33 -36 -54 0
219 -33 -37 -55 0
220 -33 -38 -56 0
220 33 38 56 0
221 34 35 57 0
222 -34 -36 -58 0
222 34 36 58 0
223 -34 -37 -59 0
224 -34 -38 -60 0
224 34 38 60 0
225 -35 -36 -61 0
226 -35 -37 -62 0
226 35 37 62 0
227 -35 -38 -63 0
228 -36 -37 -64 0
229 -36 -38 -65 0
229 36 38 65 0
230 -37 -38 -66 0
230 37 38 66 0
231 39 40 46 0
234 -39 -43 -49 0
234 39 43 49 0
235 -39 -44 -50 0
236 -39 -45 -51 0
239 -40 -43 -54 0
239 40 43 54 0
240 -40 -44 -55 0
241 -40 -45 -56 0
242 41 42 57 0
243 -41 -43 -58 0
243 41 43 58 0
244 -41 -44 -59 0
244 41 44 59 0
245 -41 -45 -60 0
245 41 45 60 0
246 -42 -43 -61 0
247 -42 -44 -62 0
248 -42 -45 -63 0
253 46 48 53 0
254 46 49 54 0
255 46 50 55 0
256 46 51 56 0
258 -47 -49 -58 0
258 47 49 58 0
259 47 50 59 0
260 -47 -51 -60 0
260 47 51 60 0
261 48 49 61 0
262 48 50 62 0
263 48 51 63 0
268 52 54 58 0
269 52 55 59 0
270 52 56 60 0
271 -53 -54 -61 0
271 53 54 61 0
272 53 55 62 0
273 -53 -56 -63 0
273 53 56 63 0
277 57 58 61 0
278 -57 -59 -62 0
278 57 59 62 0
279 57 60 63 0
280 -58 -59 -64 0
281 -58 -60 -65 0
282 -59 -60 -66 0
282 59 60 66 0
286 -64 -65 -66 0
-67 -205 -253 -286 0
-67 -226 -241 -258 0
-68 -182 -242 -286 0
-68 -193 -231 -286 0
-68 -198 -241 -258 0
-78 -138 -258 -272 0
-78 -146 -221 -286 0
-78 -148 -219 -281 0
-78 -148 -220 -280 0
-78 -148 -229 -269 0
-78 -153 -214 -281 0
-78 -153 -230 -258 0
-86 -157 -182 -286 0
-87 -141 -189 -286 0
-88 -139 -193 -286 0
-88 -141 -184 -286 0
-88 -148 -179 -282 0
-88 -148 -180 -281 0
-88 -148 -181 -280 0
-89 -142 -182 -286 0
-90 -139 -188 -286 0
-90 -140 -183 -286 0
-90 -141 -182 -286 0
-90 -146 -179 -282 0
-94 -152 -171 -286 0
-95 -130 -226 -258 0
-95 -137 -184 -281 0
-95 -138 -184 -280 0
-95 -147 -171 -286 0
-95 -148 -172 -282 0
-95 -148 -173 -281 0
-95 -148 -196 -228 0
-95 -157 -168 -286 0
-96 -146 -171 -286 0
-97 -129 -220 -258 0
-97 -130 -219 -258 0
-97 -147 -169 -286 0
-97 -155 -168 -281 0
-97 -156 -168 -280 0
-101 -141 -171 -286 0
-102 -140 -171 -286 0
-102 -153 -180 -229 0
-102 -153 -181 -228 0
-107 -139 -171 -286 0
-107 -148 -179 -230 0
-112 -139 -200 -220 0
-112 -146 -179 -230 0
-119 -139 -169 -279 0
-119 -139 -170 -273 0
-119 -139 -171 -270 0
-119 -139 -188 -227 0
-119 -139 -189 -224 0
-119 -139 -193 -220 0
-119 -140 -168 -279 0
-119 -140 -170 -263 0
-119 -140 -171 -260 0
-119 -140 -183 -227 0
-119 -140 -184 -224 0
-119 -140 -193 -215 0
-119 -141 -168 -273 0
-119 -141 -169 -263 0
-119 -141 -171 -256 0
-119 -141 -182 -227 0
-119 -141 -184 -220 0
-119 -141 -189 -215 0
-119 -142 -169 -260 0
-119 -142 -170 -256 0
-119 -142 -182 -224 0
-119 -142 -183 -220 0
-119 -142 -188 -215 0
-119 -146 -170 -248 0
-119 -146 -171 -245 0
-119 -146 -193 -209 0
-119 -147 -169 -248 0
-119 -147 -171 -241 0
-119 -147 -189 -209 0
-119 -148 -169 -245 0
-119 -148 -170 -241 0
-119 -148 -188 -209 0
-119 -148 -192 -205 0
-119 -152 -168 -248 0
-119 -152 -171 -236 0
-119 -152 -184 -209 0
-119 -153 -168 -245 0
-119 -153 -170 -236 0
-119 -153 -183 -209 0
-119 -157 -168 -241 0
-119 -157 -169 -236 0
-119 -157 -182 -209 0
-120 -139 -169 -278 0
-120 -139 -170 -272 0
-120 -139 -171 -269 0
-120 -139 -188 -226 0
-120 -139 -189 -223 0
-120 -139 -193 -219 0
-120 -140 -168 -278 0
-120 -140 -170 -262 0
-120 -140 -171 -259 0
-120 -140 -183 -226 0
-120 -140 -184 -223 0
-120 -140 -193 -214 0
-120 -141 -168 -272 0
-120 -141 -169 -262 0
-120 -141 -182 -226 0
-120 -141 -184 -219 0
-120 -141 -189 -214 0
-120 -142 -168 -269 0
-120 -142 -169 -259 0
-120 -142 -170 -255 0
-120 -142 -182 -223 0
-120 -142 -183 -219 0
-120 -142 -188 -214 0
-120 -146 -170 -247 0
-120 -146 -171 -244 0
-120 -147 -169 -247 0
-120 -147 -171 -240 0
-120 -148 -169 -244 0
-120 -148 -170 -240 0
-120 -148 -188 -208 0
-120 -152 -168 -247 0
-120 -152 -171 -235 0
-120 -152 -184 -208 0
-120 -153 -168 -244 0
-120 -153 -170 -235 0
-120 -153 -183 -208 0
-120 -157 -168 -240 0
-120 -157 -169 -235 0
-120 -157 -182 -208 0
-121 -139 -169 -277 0
-121 -139 -170 -271 0
-121 -139 -171 -268 0
-121 -139 -188 -225 0
-121 -139 -189 -222 0
-121 -139 -193 -218 0
-121 -140 -168 -277 0
-121 -140 -171 -258 0
-121 -140 -183 -225 0
-121 -140 -184 -222 0
-121 -140 -193 -213 0
-121 -141 -168 -271 0
-121 -141 -169 -261 0
-121 -141 -171 -254 0
-121 -141 -182 -225 0
-121 -141 -184 -218 0
-121 -141 -189 -213 0
-121 -142 -182 -222 0
-121 -142 -183 -218 0
-121 -142 -188 -213 0
-121 -146 -170 -246 0
-121 -146 -171 -243 0
-121 -146 -193 -207 0
-121 -147 -169 -246 0
-121 -147 -171 -239 0
-121 -147 -189 -207 0
-121 -148 -169 -243 0
-121 -148 -170 -239 0
-121 -148 -188 -207 0
-121 -152 -168 -246 0
-121 -152 -171 -234 0
-121 -152 -184 -207 0
-121 -153 -168 -243 0
-121 -153 -170 -234 0
-121 -153 -183 -207 0
-121 -157 -168 -239 0
-121 -157 -169 -234 0
-121 -157 -182 -207 0
1 0
2 0
3 0
4 0
5 0
6 0
7 0
8 0
-9 0
-10 0
-11 0
12 0
13 0
-14 0
-15 0
-16 0
-17 0
-18 0
23 0
-24 0
-25 0
-26 0
-27 0
