p cnf 286 1217
-1 -2 -3 -12 -13 -22 0
-1 -2 -4 -12 -14 -23 0
-1 -3 -4 -13 -14 -31 0
-2 -5 -6 -24 -25 -46 0
-2 -5 -7 -24 -26 -47 0
-2 -5 -8 -24 -27 -48 0
-2 -6 -7 -25 -26 -52 0
-2 -6 -8 -25 -27 -53 0
-2 -7 -8 -26 -27 -57 0
-3 -5 -6 -32 -33 -46 0
-3 -5 -7 -32 -34 -47 0
-3 -5 -8 -32 -35 -48 0
-3 -6 -7 -33 -34 -52 0
-3 -6 -8 -33 -35 -53 0
-3 -7 -8 -34 -35 -57 0
-4 -5 -6 -39 -40 -46 0
-4 -5 -7 -39 -41 -47 0
-4 -5 -8 -39 -42 -48 0
-4 -6 -7 -40 -41 -52 0
-4 -6 -8 -40 -42 -53 0
-4 -7 -8 -41 -42 -57 0
-5 -6 -7 -46 -47 -52 0
-5 -6 -8 -46 -48 -53 0
-5 -7 -8 -47 -48 -57 0
-6 -7 -8 -52 -53 -57 0
9 10 11 64 65 66 0
-12 -19 -20 -28 -29 -64 0
-12 -19 -21 -28 -30 -65 0
-12 -20 -21 -29 -30 -66 0
-13 -19 -20 -36 -37 -64 0
-13 -19 -21 -36 -38 -65 0
-13 -20 -21 -37 -38 -66 0
-14 -19 -20 -43 -44 -64 0
-14 -19 -21 -43 -45 -65 0
-14 -20 -21 -44 -45 -66 0
15 16 17 46 47 52 0
15 16 18 46 48 53 0
15 16 19 46 49 54 0
15 16 20 46 50 55 0
15 16 21 46 51 56 0
15 17 18 47 48 57 0
15 17 19 47 49 58 0
15 17 20 47 50 59 0
15 18 19 48 49 61 0
15 18 20 48 50 62 0
15 18 21 48 51 63 0
15 20 21 50 51 66 0
16 17 18 52 53 57 0
16 17 19 52 54 58 0
16 17 20 52 55 59 0
16 17 21 52 56 60 0
16 18 19 53 54 61 0
16 18 20 53 55 62 0
16 18 21 53 56 63 0
17 18 19 57 58 61 0
17 18 20 57 59 62 0
17 18 21 57 60 63 0
17 20 21 59 60 66 0
18 19 20 61 62 64 0
18 20 21 62 63 66 0
-19 -20 -21 -64 -65 -66 0
22 23 24 31 32 39 0
22 23 25 31 33 40 0
22 23 26 31 34 41 0
22 23 27 31 35 42 0
22 23 28 31 36 43 0
22 23 29 31 37 44 0
22 23 30 31 38 45 0
22 24 25 32 33 46 0
22 24 26 32 34 47 0
22 24 27 32 35 48 0
22 25 26 33 34 52 0
22 25 27 33 35 53 0
22 25 28 33 36 54 0
22 26 27 34 35 57 0
22 26 28 34 36 58 0
22 27 28 35 36 61 0
22 28 29 36 37 64 0
22 29 30 37 38 66 0
23 24 25 39 40 46 0
23 24 26 39 41 47 0
23 24 27 39 42 48 0
23 25 26 40 41 52 0
23 25 27 40 42 53 0
23 25 28 40 43 54 0
23 26 27 41 42 57 0
23 26 29 41 44 59 0
23 27 29 42 44 62 0
23 28 29 43 44 64 0
23 29 30 44 45 66 0
-24 -28 -30 -49 -51 -65 0
25 28 30 54 56 65 0
31 32 33 39 40 46 0
31 32 34 39 41 47 0
31 32 35 39 42 48 0
31 32 36 39 43 49 0
31 33 34 40 41 52 0
31 33 35 40 42 53 0
31 33 37 40 44 55 0
31 33 38 40 45 56 0
31 34 35 41 42 57 0
31 34 37 41 44 59 0
31 36 37 43 44 64 0
31 36 38 43 45 65 0
31 37 38 44 45 66 0
32 33 34 46 47 52 0
32 33 36 46 49 54 0
32 35 38 48 51 63 0
-33 -37 -38 -55 -56 -66 0
39 40 45 46 51 56 0
40 41 43 52 54 58 0
-46 -49 -51 -54 -56 -65 0
-46 -50 -51 -55 -56 -66 0
46 50 51 55 56 66 0
-47 -49 -50 -58 -59 -64 0
-47 -49 -51 -58 -60 -65 0
-47 -50 -51 -59 -60 -66 0
-48 -49 -50 -61 -62 -64 0
-48 -49 -51 -61 -63 -65 0
48 50 51 62 63 66 0
-52 -54 -55 -58 -59 -64 0
-52 -54 -56 -58 -60 -65 0
-52 -55 -56 -59 -60 -66 0
-53 -54 -55 -61 -62 -64 0
-53 -54 -56 -61 -63 -65 0
-53 -55 -56 -62 -63 -66 0
53 55 56 62 63 66 0
67 -1 -2 -12 0
68 -1 -3 -13 0
69 -1 -4 -14 0
79 -2 -5 -24 0
80 -2 -6 -25 0
81 -2 -7 -26 0
82 -2 -8 -27 0
87 -3 -5 -32 0
88 -3 -6 -33 0
89 -3 -7 -34 0
90 -3 -8 -35 0
94 -4 -5 -39 0
95 -4 -6 -40 0
96 -4 -7 -41 0
97 -4 -8 -42 0
101 -5 -6 -46 0
102 -5 -7 -47 0
103 -5 -8 -48 0
107 -6 -7 -52 0
108 -6 -8 -53 0
112 -7 -8 -57 0
119 9 10 64 0
120 9 11 65 0
121 10 11 66 0
128 -12 -19 -28 0
129 -12 -20 -29 0
130 -12 -21 -30 0
136 -13 -19 -36 0
137 -13 -20 -37 0
138 -13 -21 -38 0
143 -14 -19 -43 0
144 -14 -20 -44 0
145 -14 -21 -45 0
146 15 16 46 0
147 15 17 47 0
148 15 18 48 0
149 15 19 49 0
150 15 20 50 0
151 15 21 51 0
152 16 17 52 0
153 16 18 53 0
154 16 19 54 0
155 16 20 55 0
156 16 21 56 0
157 17 18 57 0
158 17 19 58 0
159 17 20 59 0
160 17 21 60 0
161 18 19 61 0
162 18 20 62 0
163 18 21 63 0
164 -19 -20 -64 0
164 19 20 64 0
165 -19 -21 -65 0
166 -20 -21 -66 0
166 20 21 66 0
167 22 23 31 0
168 22 24 32 0
169 22 25 33 0
170 22 26 34 0
171 22 27 35 0
172 22 28 36 0
173 22 29 37 0
174 22 30 38 0
175 23 24 39 0
176 23 25 40 0
177 23 26 41 0
178 23 27 42 0
179 23 28 43 0
180 23 29 44 0
181 23 30 45 0
182 24 25 46 0
183 24 26 47 0
184 24 27 48 0
185 -24 -28 -49 0
185 24 28 49 0
186 -24 -29 -50 0
186 24 29 50 0
187 -24 -30 -51 0
187 24 30 51 0
188 25 26 52 0
189 25 27 53 0
190 -25 -28 -54 0
190 25 28 54 0
191 -25 -29 -55 0
191 25 29 55 0
192 -25 -30 -56 0
192 25 30 56 0
193 26 27 57 0
194 -26 -28 -58 0
194 26 28 58 0
195 -26 -29 -59 0
195 26 29 59 0
196 -26 -30 -60 0
196 26 30 60 0
197 -27 -28 -61 0
197 27 28 61 0
198 -27 -29 -62 0
198 27 29 62 0
199 -27 -30 -63 0
199 27 30 63 0
200 -28 -29 -64 0
200 28 29 64 0
202 -29 -30 -66 0
202 29 30 66 0
203 31 32 39 0
204 31 33 40 0
205 31 34 41 0
206 31 35 42 0
207 31 36 43 0
208 31 37 44 0
209 31 38 45 0
210 32 33 46 0
211 32 34 47 0
212 32 35 48 0
213 -32 -36 -49 0
213 32 36 49 0
214 -32 -37 -50 0
214 32 37 50 0
215 -32 -38 -51 0
215 32 38 51 0
216 33 34 52 0
217 -33 -35 -53 0
217 33 35 53 0
218 -33 -36 -54 0
218 33 36 54 0
219 -33 -37 -55 0
219 33 37 55 0
220 -33 -38 -56 0
220 33 38 56 0
221 34 35 57 0
222 -34 -36 -58 0
222 34 36 58 0
223 -34 -37 -59 0
223 34 37 59 0
224 -34 -38 -60 0
224 34 38 60 0
225 -35 -36 -61 0
225 35 36 61 0
226 -35 -37 -62 0
226 35 37 62 0
227 -35 -38 -63 0
227 35 38 63 0
228 36 37 64 0
229 -36 -38 -65 0
229 36 38 65 0
230 -37 -38 -66 0
230 37 38 66 0
231 39 40 46 0
232 39 41 47 0
233 39 42 48 0
234 -39 -43 -49 0
234 39 43 49 0
235 -39 -44 -50 0
235 39 44 50 0
236 -39 -45 -51 0
236 39 45 51 0
237 40 41 52 0
238 -40 -42 -53 0
238 40 42 53 0
239 -40 -43 -54 0
239 40 43 54 0
240 -40 -44 -55 0
240 40 44 55 0
241 -40 -45 -56 0
241 40 45 56 0
242 41 42 57 0
243 -41 -43 -58 0
243 41 43 58 0
244 -41 -44 -59 0
244 41 44 59 0
245 -41 -45 -60 0
245 41 45 60 0
246 -42 -43 -61 0
246 42 43 61 0
247 -42 -44 -62 0
247 42 44 62 0
248 -42 -45 -63 0
248 42 45 63 0
249 -43 -44 -64 0
249 43 44 64 0
250 43 45 65 0
251 -44 -45 -66 0
251 44 45 66 0
252 46 47 52 0
254 -46 -49 -54 0
254 46 49 54 0
255 -46 -50 -55 0
255 46 50 55 0
256 -46 -51 -56 0
256 46 51 56 0
258 -47 -49 -58 0
258 47 49 58 0
259 -47 -50 -59 0
259 47 50 59 0
260 -47 -51 -60 0
260 47 51 60 0
261 -48 -49 -61 0
261 48 49 61 0
262 -48 -50 -62 0
262 48 50 62 0
263 -48 -51 -63 0
263 48 51 63 0
264 -49 -50 -64 0
264 49 50 64 0
265 -49 -51 -65 0
265 49 51 65 0
266 -50 -51 -66 0
266 50 51 66 0
268 -52 -54 -58 0
268 52 54 58 0
269 -52 -55 -59 0
269 52 55 59 0
270 -52 -56 -60 0
270 52 56 60 0
271 -53 -54 -61 0
271 53 54 61 0
272 -53 -55 -62 0
272 53 55 62 0
273 -53 -56 -63 0
273 53 56 63 0
274 -54 -55 -64 0
274 54 55 64 0
275 -54 -56 -65 0
276 -55 -56 -66 0
276 55 56 66 0
277 -57 -58 -61 0
277 57 58 61 0
278 -57 -59 -62 0
278 57 59 62 0
279 -57 -60 -63 0
279 57 60 63 0
280 -58 -59 -64 0
280 58 59 64 0
281 -58 -60 -65 0
281 58 60 65 0
282 59 60 66 0
283 -61 -62 -64 0
283 61 62 64 0
284 -61 -63 -65 0
284 61 63 65 0
285 -62 -63 -66 0
285 62 63 66 0
286 -64 -65 -66 0
286 64 65 66 0
-67 -204 -262 -281 0
-67 -205 -261 -276 0
-67 -205 -262 -275 0
-67 -206 -252 -286 0
-67 -210 -242 -286 0
-67 -211 -238 -286 0
-67 -212 -237 -286 0
-67 -216 -233 -286 0
-67 -217 -232 -286 0
-68 -175 -272 -281 0
-68 -177 -262 -275 0
-68 -177 -265 -272 0
-68 -182 -242 -286 0
-68 -182 -245 -283 0
-68 -183 -238 -286 0
-68 -184 -237 -286 0
-68 -188 -233 -286 0
-68 -189 -232 -286 0
-68 -191 -242 -265 0
-68 -193 -231 -286 0
-69 -168 -269 -284 0
-69 -169 -259 -284 0
-69 -183 -217 -286 0
-69 -184 -216 -286 0
-69 -188 -212 -286 0
-69 -189 -211 -286 0
-69 -192 -211 -283 0
-69 -193 -210 -286 0
-69 -194 -210 -285 0
-69 -202 -221 -254 0
-79 -138 -237 -283 0
-79 -144 -222 -273 0
-79 -145 -221 -274 0
-79 -152 -206 -286 0
-79 -152 -207 -285 0
-79 -152 -227 -249 0
-79 -152 -228 -248 0
-79 -152 -230 -246 0
-79 -153 -205 -286 0
-79 -153 -222 -251 0
-79 -153 -230 -243 0
-79 -155 -205 -284 0
-79 -157 -204 -286 0
-79 -157 -218 -251 0
-79 -157 -219 -250 0
-79 -157 -229 -240 0
-79 -157 -230 -239 0
-79 -164 -204 -279 0
-79 -164 -206 -270 0
-79 -164 -220 -242 0
-79 -165 -204 -278 0
-79 -165 -217 -244 0
-79 -165 -219 -242 0
-79 -165 -221 -240 0
-79 -165 -223 -238 0
-79 -165 -226 -237 0
-79 -166 -221 -239 0
-80 -136 -244 -263 0
-80 -138 -232 -283 0
-80 -138 -234 -278 0
-80 -138 -247 -258 0
-80 -143 -221 -266 0
-80 -145 -212 -280 0
-80 -147 -206 -286 0
-80 -148 -205 -286 0
-80 -148 -222 -251 0
-80 -157 -203 -286 0
-80 -157 -208 -265 0
-80 -157 -230 -234 0
-80 -164 -211 -248 0
-80 -165 -205 -262 0
-80 -165 -211 -247 0
-80 -165 -214 -242 0
-80 -165 -221 -235 0
-80 -165 -226 -232 0
-80 -166 -212 -243 0
-80 -166 -225 -232 0
-81 -138 -235 -271 0
-81 -138 -238 -264 0
-81 -138 -240 -261 0
-81 -138 -247 -254 0
-81 -143 -214 -273 0
-81 -145 -214 -271 0
-81 -145 -217 -264 0
-81 -146 -206 -286 0
-81 -146 -225 -251 0
-81 -146 -227 -249 0
-81 -146 -230 -246 0
-81 -148 -204 -286 0
-81 -149 -219 -248 0
-81 -150 -207 -273 0
-81 -153 -203 -286 0
-81 -153 -208 -265 0
-81 -153 -228 -236 0
-81 -153 -230 -234 0
-81 -161 -204 -266 0
-81 -165 -204 -262 0
-81 -165 -210 -247 0
-81 -165 -217 -235 0
-81 -165 -226 -231 0
-81 -166 -213 -238 0
-82 -136 -245 -255 0
-82 -138 -231 -280 0
-82 -138 -232 -274 0
-82 -143 -210 -282 0
-82 -144 -210 -281 0
-82 -146 -205 -286 0
-82 -146 -208 -281 0
-82 -146 -228 -245 0
-82 -147 -204 -286 0
-82 -147 -218 -251 0
-82 -147 -228 -241 0
-82 -152 -203 -286 0
-82 -152 -215 -249 0
-82 -152 -229 -235 0
-82 -152 -230 -234 0
-82 -155 -207 -260 0
-82 -159 -204 -265 0
-82 -160 -207 -255 0
-82 -164 -203 -270 0
-82 -164 -210 -245 0
-82 -164 -216 -236 0
-82 -164 -224 -231 0
-82 -165 -205 -255 0
-82 -165 -210 -244 0
-82 -165 -219 -232 0
-82 -165 -223 -231 0
-87 -130 -237 -283 0
-87 -130 -240 -277 0
-87 -130 -242 -274 0
-87 -143 -198 -270 0
-87 -144 -199 -268 0
-87 -145 -189 -280 0
-87 -152 -178 -286 0
-87 -152 -179 -285 0
-87 -152 -180 -284 0
-87 -152 -198 -250 0
-87 -152 -202 -246 0
-87 -153 -177 -286 0
-87 -153 -194 -251 0
-87 -153 -196 -249 0
-87 -154 -177 -285 0
-87 -155 -177 -284 0
-87 -156 -179 -278 0
-87 -157 -176 -286 0
-87 -157 -202 -239 0
-87 -164 -176 -279 0
-87 -164 -188 -248 0
-87 -165 -176 -278 0
-87 -165 -189 -244 0
-87 -165 -191 -242 0
-87 -165 -195 -238 0
-87 -165 -198 -237 0
-87 -166 -197 -237 0
-88 -129 -245 -261 0
-88 -130 -235 -277 0
-88 -130 -242 -264 0
-88 -144 -193 -265 0
-88 -144 -194 -263 0
-88 -145 -183 -283 0
-88 -145 -193 -264 0
-88 -147 -178 -286 0
-88 -147 -197 -251 0
-88 -148 -177 -286 0
-88 -148 -194 -251 0
-88 -148 -202 -243 0
-88 -157 -175 -286 0
-88 -157 -187 -249 0
-88 -157 -202 -234 0
-88 -164 -193 -236 0
-88 -165 -183 -247 0
-88 -165 -186 -242 0
-88 -165 -193 -235 0
-88 -166 -175 -277 0
-89 -128 -233 -276 0
-89 -130 -231 -283 0
-89 -130 -235 -271 0
-89 -130 -238 -264 0
-89 -130 -240 -261 0
-89 -130 -247 -254 0
-89 -145 -182 -283 0
-89 -145 -184 -274 0
-89 -145 -189 -264 0
-89 -145 -191 -261 0
-89 -146 -178 -286 0
-89 -146 -202 -246 0
-89 -148 -202 -239 0
-89 -153 -175 -286 0
-89 -153 -185 -251 0
-89 -153 -187 -249 0
-89 -154 -180 -263 0
-89 -164 -199 -231 0
-89 -165 -178 -255 0
-89 -165 -182 -247 0
-89 -165 -184 -240 0
-89 -165 -186 -238 0
-89 -165 -189 -235 0
-89 -165 -198 -231 0
-89 -166 -175 -271 0
-89 -166 -185 -238 0
-89 -166 -197 -231 0
-90 -130 -231 -280 0
-90 -130 -232 -274 0
-90 -130 -244 -254 0
-90 -143 -182 -282 0
-90 -145 -182 -280 0
-90 -145 -183 -274 0
-90 -145 -191 -258 0
-90 -145 -195 -254 0
-90 -146 -177 -286 0
-90 -146 -196 -249 0
-90 -146 -200 -245 0
-90 -146 -202 -243 0
-90 -147 -176 -286 0
-90 -152 -175 -286 0
-90 -152 -179 -266 0
-90 -152 -185 -251 0
-90 -152 -186 -250 0
-90 -160 -179 -255 0
-90 -164 -175 -270 0
-90 -164 -182 -245 0
-90 -164 -188 -236 0
-90 -164 -196 -231 0
-90 -165 -177 -255 0
-90 -165 -182 -244 0
-90 -165 -183 -240 0
-90 -165 -186 -237 0
-90 -165 -191 -232 0
-90 -165 -195 -231 0
-90 -166 -188 -234 0
-94 -130 -216 -283 0
-94 -137 -188 -284 0
-94 -138 -188 -283 0
-94 -138 -189 -280 0
-94 -152 -171 -286 0
-94 -152 -172 -285 0
-94 -152 -173 -284 0
-94 -152 -198 -229 0
-94 -152 -202 -225 0
-94 -153 -170 -286 0
-94 -153 -194 -230 0
-94 -153 -196 -228 0
-94 -154 -170 -285 0
-94 -155 -170 -284 0
-94 -156 -172 -278 0
-94 -157 -169 -286 0
-94 -157 -190 -230 0
-94 -157 -202 -218 0
-94 -164 -188 -227 0
-94 -164 -192 -221 0
-94 -165 -188 -226 0
-94 -165 -189 -223 0
-94 -165 -191 -221 0
-94 -165 -198 -216 0
-94 -166 -188 -225 0
-94 -166 -197 -216 0
-95 -129 -221 -265 0
-95 -130 -214 -277 0
-95 -130 -221 -264 0
-95 -130 -226 -258 0
-95 -137 -199 -258 0
-95 -138 -183 -283 0
-95 -138 -186 -277 0
-95 -138 -193 -264 0
-95 -138 -195 -261 0
-95 -138 -198 -258 0
-95 -147 -171 -286 0
-95 -147 -197 -230 0
-95 -148 -170 -286 0
-95 -157 -168 -286 0
-95 -157 -185 -230 0
-95 -158 -173 -263 0
-95 -164 -187 -221 0
-95 -164 -196 -212 0
-95 -165 -183 -226 0
-95 -165 -186 -221 0
-95 -165 -193 -214 0
-95 -165 -198 -211 0
-95 -166 -193 -213 0
-96 -128 -217 -266 0
-96 -128 -219 -263 0
-96 -129 -210 -284 0
-96 -129 -217 -265 0
-96 -130 -210 -283 0
-96 -130 -214 -271 0
-96 -130 -217 -264 0
-96 -130 -219 -261 0
-96 -130 -226 -254 0
-96 -136 -198 -256 0
-96 -138 -182 -283 0
-96 -138 -184 -274 0
-96 -138 -189 -264 0
-96 -138 -191 -261 0
-96 -146 -171 -286 0
-96 -153 -168 -286 0
-96 -153 -173 -265 0
-96 -156 -186 -225 0
-96 -164 -182 -227 0
-96 -164 -187 -217 0
-96 -164 -192 -212 0
-96 -164 -199 -210 0
-96 -165 -171 -255 0
-96 -165 -182 -226 0
-96 -165 -184 -219 0
-96 -165 -186 -217 0
-96 -165 -189 -214 0
-96 -165 -191 -212 0
-96 -165 -198 -210 0
-96 -166 -168 -271 0
-96 -166 -169 -261 0
-96 -166 -197 -210 0
-97 -128 -224 -255 0
-97 -130 -210 -280 0
-97 -130 -216 -264 0
-97 -130 -222 -255 0
-97 -136 -192 -259 0
-97 -138 -182 -280 0
-97 -138 -183 -274 0
-97 -138 -188 -264 0
-97 -146 -170 -286 0
-97 -146 -174 -280 0
-97 -146 -202 -222 0
-97 -147 -169 -286 0
-97 -147 -173 -275 0
-97 -147 -200 -220 0
-97 -150 -172 -270 0
-97 -150 -188 -229 0
-97 -150 -194 -220 0
-97 -152 -168 -286 0
-97 -152 -172 -266 0
-97 -152 -186 -229 0
-97 -160 -172 -255 0
-97 -164 -170 -256 0
-97 -164 -188 -215 0
-97 -164 -192 -211 0
-97 -165 -186 -216 0
-97 -166 -183 -218 0
-97 -166 -188 -213 0
-97 -166 -190 -211 0
-97 -166 -194 -210 0
-101 -128 -223 -248 0
-101 -136 -195 -248 0
-101 -137 -194 -248 0
-101 -143 -195 -227 0
-101 -143 -199 -223 0
-101 -144 -194 -227 0
-101 -144 -199 -222 0
-101 -157 -167 -286 0
-101 -164 -167 -279 0
-101 -164 -170 -248 0
-101 -164 -171 -245 0
-101 -164 -177 -227 0
-101 -164 -196 -206 0
-101 -165 -167 -278 0
-101 -165 -171 -244 0
-101 -165 -177 -226 0
-101 -165 -178 -223 0
-101 -165 -195 -206 0
-101 -165 -198 -205 0
-101 -166 -167 -277 0
-101 -166 -170 -246 0
-101 -166 -171 -243 0
-101 -166 -177 -225 0
-101 -166 -197 -205 0
-102 -129 -207 -273 0
-102 -130 -219 -246 0
-102 -137 -176 -284 0
-102 -138 -197 -240 0
-102 -143 -192 -226 0
-102 -145 -171 -274 0
-102 -153 -167 -286 0
-102 -153 -179 -230 0
-102 -153 -202 -207 0
-102 -154 -167 -285 0
-102 -161 -167 -276 0
-102 -162 -167 -275 0
-102 -164 -167 -273 0
-102 -164 -169 -248 0
-102 -164 -176 -227 0
-102 -164 -192 -206 0
-102 -164 -199 -204 0
-102 -165 -167 -272 0
-102 -165 -169 -247 0
-102 -165 -171 -240 0
-102 -165 -176 -226 0
-102 -165 -178 -219 0
-102 -165 -180 -217 0
-102 -165 -191 -206 0
-102 -165 -198 -204 0
-102 -166 -167 -271 0
-102 -166 -171 -239 0
-102 -166 -176 -225 0
-102 -166 -178 -218 0
-102 -166 -197 -204 0
-103 -128 -219 -245 0
-103 -128 -224 -240 0
-103 -128 -230 -237 0
-103 -129 -220 -243 0
-103 -130 -204 -280 0
-103 -143 -188 -230 0
-103 -143 -192 -223 0
-103 -143 -202 -216 0
-103 -152 -167 -286 0
-103 -152 -202 -207 0
-103 -164 -167 -270 0
-103 -164 -170 -241 0
-103 -164 -176 -224 0
-103 -164 -192 -205 0
-103 -164 -196 -204 0
-103 -165 -167 -269 0
-103 -165 -176 -223 0
-103 -165 -177 -219 0
-103 -165 -191 -205 0
-103 -165 -195 -204 0
-103 -166 -167 -268 0
-103 -166 -169 -243 0
-103 -166 -176 -222 0
-103 -166 -177 -218 0
-103 -166 -190 -205 0
-103 -166 -194 -204 0
-107 -130 -214 -246 0
-107 -130 -225 -235 0
-107 -137 -187 -246 0
-107 -138 -186 -246 0
-107 -143 -198 -215 0
-107 -144 -199 -213 0
-107 -145 -171 -264 0
-107 -145 -198 -213 0
-107 -148 -167 -286 0
-107 -148 -202 -207 0
-107 -149 -167 -285 0
-107 -150 -167 -284 0
-107 -164 -167 -263 0
-107 -164 -168 -248 0
-107 -164 -171 -236 0
-107 -164 -175 -227 0
-107 -164 -178 -215 0
-107 -164 -187 -206 0
-107 -164 -199 -203 0
-107 -165 -167 -262 0
-107 -165 -168 -247 0
-107 -165 -171 -235 0
-107 -165 -175 -226 0
-107 -165 -186 -206 0
-107 -165 -198 -203 0
-107 -166 -167 -261 0
-107 -166 -171 -234 0
-107 -166 -178 -213 0
-107 -166 -197 -203 0
-108 -136 -202 -232 0
-108 -137 -177 -265 0
-108 -138 -177 -264 0
-108 -143 -187 -223 0
-108 -147 -167 -286 0
-108 -147 -202 -207 0
-108 -150 -167 -281 0
-108 -150 -177 -229 0
-108 -159 -185 -209 0
-108 -164 -167 -260 0
-108 -164 -170 -236 0
-108 -164 -177 -215 0
-108 -164 -196 -203 0
-108 -165 -167 -259 0
-108 -165 -168 -244 0
-108 -165 -175 -223 0
-108 -165 -186 -205 0
-108 -165 -195 -203 0
-108 -166 -167 -258 0
-108 -166 -185 -205 0
-108 -166 -194 -203 0
-112 -128 -230 -231 0
-112 -129 -218 -236 0
-112 -138 -179 -255 0
-112 -146 -167 -286 0
-112 -150 -167 -275 0
-112 -164 -167 -256 0
-112 -164 -168 -241 0
-112 -164 -176 -215 0
-112 -164 -182 -209 0
-112 -165 -167 -255 0
-112 -165 -168 -240 0
-112 -165 -175 -219 0
-112 -165 -176 -214 0
-112 -165 -191 -203 0
-112 -166 -167 -254 0
-119 -130 -210 -242 0
-119 -130 -211 -238 0
-119 -130 -212 -237 0
-119 -130 -216 -233 0
-119 -130 -217 -232 0
-119 -130 -221 -231 0
-119 -138 -182 -242 0
-119 -138 -183 -238 0
-119 -138 -184 -237 0
-119 -138 -188 -233 0
-119 -138 -189 -232 0
-119 -138 -193 -231 0
-119 -145 -182 -221 0
-119 -145 -183 -217 0
-119 -145 -184 -216 0
-119 -145 -188 -212 0
-119 -145 -189 -211 0
-119 -145 -193 -210 0
-119 -146 -167 -279 0
-119 -146 -170 -248 0
-119 -146 -171 -245 0
-119 -146 -174 -242 0
-119 -146 -177 -227 0
-119 -146 -178 -224 0
-119 -146 -181 -221 0
-119 -146 -193 -209 0
-119 -146 -196 -206 0
-119 -146 -199 -205 0
-119 -147 -167 -273 0
-119 -147 -169 -248 0
-119 -147 -171 -241 0
-119 -147 -174 -238 0
-119 -147 -176 -227 0
-119 -147 -178 -220 0
-119 -147 -181 -217 0
-119 -147 -189 -209 0
-119 -147 -192 -206 0
-119 -147 -199 -204 0
-119 -148 -167 -270 0
-119 -148 -169 -245 0
-119 -148 -170 -241 0
-119 -148 -174 -237 0
-119 -148 -176 -224 0
-119 -148 -177 -220 0
-119 -148 -181 -216 0
-119 -148 -188 -209 0
-119 -148 -192 -205 0
-119 -148 -196 -204 0
-119 -151 -169 -242 0
-119 -151 -170 -238 0
-119 -151 -171 -237 0
-119 -151 -176 -221 0
-119 -151 -177 -217 0
-119 -151 -178 -216 0
-119 -151 -188 -206 0
-119 -151 -189 -205 0
-119 -151 -193 -204 0
-119 -152 -167 -263 0
-119 -152 -168 -248 0
-119 -152 -171 -236 0
-119 -152 -174 -233 0
-119 -152 -175 -227 0
-119 -152 -178 -215 0
-119 -152 -181 -212 0
-119 -152 -184 -209 0
-119 -152 -187 -206 0
-119 -152 -199 -203 0
-119 -153 -167 -260 0
-119 -153 -168 -245 0
-119 -153 -170 -236 0
-119 -153 -174 -232 0
-119 -153 -175 -224 0
-119 -153 -177 -215 0
-119 -153 -181 -211 0
-119 -153 -183 -209 0
-119 -153 -187 -205 0
-119 -153 -196 -203 0
-119 -156 -168 -242 0
-119 -156 -170 -233 0
-119 -156 -171 -232 0
-119 -156 -175 -221 0
-119 -156 -177 -212 0
-119 -156 -178 -211 0
-119 -156 -183 -206 0
-119 -156 -184 -205 0
-119 -156 -193 -203 0
-119 -157 -167 -256 0
-119 -157 -168 -241 0
-119 -157 -169 -236 0
-119 -157 -174 -231 0
-119 -157 -175 -220 0
-119 -157 -176 -215 0
-119 -157 -181 -210 0
-119 -157 -182 -209 0
-119 -157 -187 -204 0
-119 -157 -192 -203 0
-119 -160 -168 -238 0
-119 -160 -169 -233 0
-119 -160 -171 -231 0
-119 -160 -175 -217 0
-119 -160 -176 -212 0
-119 -160 -178 -210 0
-119 -160 -182 -206 0
-119 -160 -184 -204 0
-119 -160 -189 -203 0
-119 -163 -168 -237 0
-119 -163 -169 -232 0
-119 -163 -170 -231 0
-119 -163 -175 -216 0
-119 -163 -176 -211 0
-119 -163 -177 -210 0
-119 -163 -182 -205 0
-119 -163 -183 -204 0
-119 -163 -188 -203 0
-120 -129 -210 -242 0
-120 -129 -211 -238 0
-120 -129 -212 -237 0
-120 -129 -216 -233 0
-120 -129 -217 -232 0
-120 -129 -221 -231 0
-120 -137 -182 -242 0
-120 -137 -183 -238 0
-120 -137 -184 -237 0
-120 -137 -188 -233 0
-120 -137 -189 -232 0
-120 -137 -193 -231 0
-120 -144 -182 -221 0
-120 -144 -183 -217 0
-120 -144 -184 -216 0
-120 -144 -188 -212 0
-120 -144 -189 -211 0
-120 -144 -193 -210 0
-120 -146 -167 -278 0
-120 -146 -170 -247 0
-120 -146 -171 -244 0
-120 -146 -173 -242 0
-120 -146 -177 -226 0
-120 -146 -178 -223 0
-120 -146 -180 -221 0
-120 -146 -193 -208 0
-120 -146 -195 -206 0
-120 -146 -198 -205 0
-120 -147 -167 -272 0
-120 -147 -169 -247 0
-120 -147 -171 -240 0
-120 -147 -173 -238 0
-120 -147 -176 -226 0
-120 -147 -178 -219 0
-120 -147 -180 -217 0
-120 -147 -189 -208 0
-120 -147 -191 -206 0
-120 -147 -198 -204 0
-120 -148 -167 -269 0
-120 -148 -169 -244 0
-120 -148 -170 -240 0
-120 -148 -173 -237 0
-120 -148 -176 -223 0
-120 -148 -177 -219 0
-120 -148 -180 -216 0
-120 -148 -188 -208 0
-120 -148 -191 -205 0
-120 -148 -195 -204 0
-120 -150 -169 -242 0
-120 -150 -170 -238 0
-120 -150 -171 -237 0
-120 -150 -176 -221 0
-120 -150 -177 -217 0
-120 -150 -178 -216 0
-120 -150 -188 -206 0
-120 -150 -189 -205 0
-120 -150 -193 -204 0
-120 -152 -167 -262 0
-120 -152 -168 -247 0
-120 -152 -171 -235 0
-120 -152 -173 -233 0
-120 -152 -175 -226 0
-120 -152 -178 -214 0
-120 -152 -180 -212 0
-120 -152 -184 -208 0
-120 -152 -186 -206 0
-120 -152 -198 -203 0
-120 -153 -167 -259 0
-120 -153 -168 -244 0
-120 -153 -170 -235 0
-120 -153 -173 -232 0
-120 -153 -175 -223 0
-120 -153 -177 -214 0
-120 -153 -180 -211 0
-120 -153 -183 -208 0
-120 -153 -186 -205 0
-120 -153 -195 -203 0
-120 -155 -168 -242 0
-120 -155 -170 -233 0
-120 -155 -171 -232 0
-120 -155 -175 -221 0
-120 -155 -177 -212 0
-120 -155 -178 -211 0
-120 -155 -183 -206 0
-120 -155 -184 -205 0
-120 -155 -193 -203 0
-120 -157 -167 -255 0
-120 -157 -168 -240 0
-120 -157 -169 -235 0
-120 -157 -173 -231 0
-120 -157 -175 -219 0
-120 -157 -176 -214 0
-120 -157 -180 -210 0
-120 -157 -182 -208 0
-120 -157 -186 -204 0
-120 -157 -191 -203 0
-120 -159 -168 -238 0
-120 -159 -169 -233 0
-120 -159 -171 -231 0
-120 -159 -175 -217 0
-120 -159 -176 -212 0
-120 -159 -178 -210 0
-120 -159 -182 -206 0
-120 -159 -184 -204 0
-120 -159 -189 -203 0
-120 -162 -168 -237 0
-120 -162 -169 -232 0
-120 -162 -170 -231 0
-120 -162 -175 -216 0
-120 -162 -176 -211 0
-120 -162 -177 -210 0
-120 -162 -182 -205 0
-120 -162 -183 -204 0
-120 -162 -188 -203 0
-121 -128 -210 -242 0
-121 -128 -211 -238 0
-121 -128 -212 -237 0
-121 -128 -216 -233 0
-121 -128 -217 -232 0
-121 -128 -221 -231 0
-121 -136 -182 -242 0
-121 -136 -183 -238 0
-121 -136 -184 -237 0
-121 -136 -188 -233 0
-121 -136 -189 -232 0
-121 -136 -193 -231 0
-121 -143 -182 -221 0
-121 -143 -183 -217 0
-121 -143 -184 -216 0
-121 -143 -188 -212 0
-121 -143 -189 -211 0
-121 -143 -193 -210 0
-121 -146 -167 -277 0
-121 -146 -170 -246 0
-121 -146 -171 -243 0
-121 -146 -172 -242 0
-121 -146 -177 -225 0
-121 -146 -178 -222 0
-121 -146 -179 -221 0
-121 -146 -193 -207 0
-121 -146 -194 -206 0
-121 -146 -197 -205 0
-121 -147 -167 -271 0
-121 -147 -169 -246 0
-121 -147 -171 -239 0
-121 -147 -172 -238 0
-121 -147 -176 -225 0
-121 -147 -178 -218 0
-121 -147 -179 -217 0
-121 -147 -189 -207 0
-121 -147 -190 -206 0
-121 -147 -197 -204 0
-121 -148 -167 -268 0
-121 -148 -169 -243 0
-121 -148 -170 -239 0
-121 -148 -172 -237 0
-121 -148 -176 -222 0
-121 -148 -177 -218 0
-121 -148 -179 -216 0
-121 -148 -188 -207 0
-121 -148 -190 -205 0
-121 -148 -194 -204 0
-121 -149 -169 -242 0
-121 -149 -170 -238 0
-121 -149 -171 -237 0
-121 -149 -176 -221 0
-121 -149 -177 -217 0
-121 -149 -178 -216 0
-121 -149 -188 -206 0
-121 -149 -189 -205 0
-121 -149 -193 -204 0
-121 -152 -167 -261 0
-121 -152 -168 -246 0
-121 -152 -171 -234 0
-121 -152 -172 -233 0
-121 -152 -175 -225 0
-121 -152 -178 -213 0
-121 -152 -179 -212 0
-121 -152 -184 -207 0
-121 -152 -185 -206 0
-121 -152 -197 -203 0
-121 -153 -167 -258 0
-121 -153 -168 -243 0
-121 -153 -170 -234 0
-121 -153 -172 -232 0
-121 -153 -175 -222 0
-121 -153 -177 -213 0
-121 -153 -179 -211 0
-121 -153 -183 -207 0
-121 -153 -185 -205 0
-121 -153 -194 -203 0
-121 -154 -168 -242 0
-121 -154 -170 -233 0
-121 -154 -171 -232 0
-121 -154 -175 -221 0
-121 -154 -177 -212 0
-121 -154 -178 -211 0
-121 -154 -183 -206 0
-121 -154 -184 -205 0
-121 -154 -193 -203 0
-121 -157 -167 -254 0
-121 -157 -168 -239 0
-121 -157 -169 -234 0
-121 -157 -172 -231 0
-121 -157 -175 -218 0
-121 -157 -176 -213 0
-121 -157 -179 -210 0
-121 -157 -182 -207 0
-121 -157 -185 -204 0
-121 -157 -190 -203 0
-121 -158 -168 -238 0
-121 -158 -169 -233 0
-121 -158 -171 -231 0
-121 -158 -175 -217 0
-121 -158 -176 -212 0
-121 -158 -178 -210 0
-121 -158 -182 -206 0
-121 -158 -184 -204 0
-121 -158 -189 -203 0
-121 -161 -168 -237 0
-121 -161 -169 -232 0
-121 -161 -170 -231 0
-121 -161 -175 -216 0
-121 -161 -176 -211 0
-121 -161 -177 -210 0
-121 -161 -182 -205 0
-121 -161 -183 -204 0
-121 -161 -188 -203 0
1 0
2 0
3 0
4 0
5 0
6 0
7 0
8 0
-9 0
-10 0
-11 0
12 0
13 0
14 0
-15 0
-16 0
-17 0
-18 0
