p cnf 286 52
-2 -3 -4 -22 -23 -31 0
-3 -5 -6 -32 -33 -46 0
-3 -5 -7 -32 -34 -47 0
-3 -5 -8 -32 -35 -48 0
-3 -6 -7 -33 -34 -52 0
-3 -6 -8 -33 -35 -53 0
-3 -7 -8 -34 -35 -57 0
-4 -5 -6 -39 -40 -46 0
-4 -5 -7 -39 -41 -47 0
-4 -5 -8 -39 -42 -48 0
-4 -6 -7 -40 -41 -52 0
-4 -6 -8 -40 -42 -53 0
-4 -7 -8 -41 -42 -57 0
-5 -6 -7 -46 -47 -52 0
-5 -6 -8 -46 -48 -53 0
-5 -7 -8 -47 -48 -57 0
-6 -7 -8 -52 -53 -57 0
13 14 15 31 32 39 0
13 14 16 31 33 40 0
13 14 17 31 34 41 0
13 14 18 31 35 42 0
13 15 16 32 33 46 0
13 15 17 32 34 47 0
13 15 18 32 35 48 0
13 16 17 33 34 52 0
13 16 18 33 35 53 0
13 17 18 34 35 57 0
14 15 16 39 40 46 0
14 15 17 39 41 47 0
14 15 18 39 42 48 0
14 16 17 40 41 52 0
14 16 18 40 42 53 0
14 17 18 41 42 57 0
15 16 17 46 47 52 0
15 16 18 46 48 53 0
15 17 18 47 48 57 0
16 17 18 52 53 57 0
2 0
3 0
4 0
5 0
6 0
7 0
8 0
-13 0
-14 0
-15 0
-16 0
-17 0
-18 0
22 0
23 0
