p cnf 286 58
-2 -3 -4 -22 -23 -31 0
-2 -3 -5 -22 -24 -32 0
-2 -3 -6 -22 -25 -33 0
-2 -3 -8 -22 -27 -35 0
-2 -4 -5 -23 -24 -39 0
-2 -4 -8 -23 -27 -42 0
-2 -5 -6 -24 -25 -46 0
-2 -5 -8 -24 -27 -48 0
-2 -6 -7 -25 -26 -52 0
-2 -6 -8 -25 -27 -53 0
-3 -4 -5 -31 -32 -39 0
-3 -4 -6 -31 -33 -40 0
-3 -4 -8 -31 -35 -42 0
-3 -5 -6 -32 -33 -46 0
-3 -5 -8 -32 -35 -48 0
-3 -6 -8 -33 -35 -53 0
-3 -7 -8 -34 -35 -57 0
-4 -5 -6 -39 -40 -46 0
-4 -5 -8 -39 -42 -48 0
-4 -6 -8 -40 -42 -53 0
-5 -6 -8 -46 -48 -53 0
-5 -7 -8 -47 -48 -57 0
12 13 14 22 23 31 0
12 13 15 22 24 32 0
12 13 16 22 25 33 0
12 13 18 22 27 35 0
12 14 15 23 24 39 0
12 14 16 23 25 40 0
12 14 18 23 27 42 0
12 15 16 24 25 46 0
12 15 18 24 27 48 0
12 16 18 25 27 53 0
12 17 18 26 27 57 0
13 14 16 31 33 40 0
13 14 18 31 35 42 0
13 15 16 32 33 46 0
13 15 17 32 34 47 0
13 15 18 32 35 48 0
13 16 18 33 35 53 0
14 15 16 39 40 46 0
14 15 18 39 42 48 0
14 16 18 40 42 53 0
15 16 18 46 48 53 0
16 17 18 52 53 57 0
2 0
3 0
4 0
5 0
6 0
7 0
8 0
-12 0
-13 0
-14 0
-15 0
-16 0
-17 0
-18 0
