p cnf 286 318
-1 -2 -3 -12 -13 -22 0
-2 -4 -5 -23 -24 -39 0
-3 -4 -6 -31 -33 -40 0
-3 -4 -7 -31 -34 -41 0
-3 -4 -8 -31 -35 -42 0
-3 -5 -6 -32 -33 -46 0
-3 -5 -7 -32 -34 -47 0
-3 -5 -8 -32 -35 -48 0
-3 -6 -7 -33 -34 -52 0
-3 -6 -8 -33 -35 -53 0
-3 -7 -8 -34 -35 -57 0
-4 -6 -7 -40 -41 -52 0
-4 -6 -8 -40 -42 -53 0
-4 -7 -8 -41 -42 -57 0
-5 -6 -7 -46 -47 -52 0
-5 -6 -8 -46 -48 -53 0
-5 -7 -8 -47 -48 -57 0
-6 -7 -8 -52 -53 -57 0
14 15 16 39 40 46 0
14 15 17 39 41 47 0
14 15 18 39 42 48 0
14 16 17 40 41 52 0
14 16 18 40 42 53 0
14 17 18 41 42 57 0
15 16 17 46 47 52 0
15 16 18 46 48 53 0
15 17 18 47 48 57 0
16 17 18 52 53 57 0
22 25 26 33 34 52 0
22 25 27 33 35 53 0
22 26 27 34 35 57 0
-48 -49 -51 -61 -63 -65 0
67 -1 -2 -12 0
78 -2 -4 -23 0
79 -2 -5 -24 0
88 -3 -6 -33 0
89 -3 -7 -34 0
97 -4 -8 -42 0
107 -6 -7 -52 0
108 -6 -8 -53 0
112 -7 -8 -57 0
119 9 10 64 0
120 9 11 65 0
121 10 11 66 0
139 14 15 39 0
140 14 16 40 0
141 14 17 41 0
142 14 18 42 0
146 15 16 46 0
147 15 17 47 0
148 15 18 48 0
152 16 17 52 0
153 16 18 53 0
157 17 18 57 0
169 22 25 33 0
170 22 26 34 0
171 22 27 35 0
179 -23 -28 -43 0
180 -23 -29 -44 0
181 -23 -30 -45 0
185 -24 -28 -49 0
186 -24 -29 -50 0
187 -24 -30 -51 0
188 25 26 52 0
189 25 27 53 0
190 25 28 54 0
191 25 29 55 0
192 25 30 56 0
193 26 27 57 0
194 26 28 58 0
195 26 29 59 0
196 26 30 60 0
197 27 28 61 0
198 27 29 62 0
199 27 30 63 0
203 31 32 39 0
204 -31 -33 -40 0
204 31 33 40 0
205 -31 -34 -41 0
205 31 34 41 0
206 -31 -35 -42 0
206 31 35 42 0
207 31 36 43 0
208 31 37 44 0
209 31 38 45 0
210 32 33 46 0
211 32 34 47 0
212 32 35 48 0
213 32 36 49 0
214 -32 -37 -50 0
214 32 37 50 0
215 32 38 51 0
218 -33 -36 -54 0
219 -33 -37 -55 0
220 -33 -38 -56 0
222 -34 -36 -58 0
223 -34 -37 -59 0
224 -34 -38 -60 0
225 -35 -36 -61 0
225 35 36 61 0
226 -35 -37 -62 0
227 -35 -38 -63 0
234 39 43 49 0
235 39 44 50 0
236 39 45 51 0
239 -40 -43 -54 0
239 40 43 54 0
240 -40 -44 -55 0
240 40 44 55 0
241 -40 -45 -56 0
241 40 45 56 0
243 -41 -43 -58 0
244 -41 -44 -59 0
245 -41 -45 -60 0
246 -42 -43 -61 0
247 -42 -44 -62 0
247 42 44 62 0
248 -42 -45 -63 0
254 -46 -49 -54 0
255 -46 -50 -55 0
256 -46 -51 -56 0
257 -47 -48 -57 0
258 -47 -49 -58 0
259 -47 -50 -59 0
260 -47 -51 -60 0
261 -48 -49 -61 0
262 -48 -50 -62 0
263 -48 -51 -63 0
268 52 54 58 0
269 52 55 59 0
270 52 56 60 0
271 53 54 61 0
272 53 55 62 0
273 53 56 63 0
277 57 58 61 0
278 57 59 62 0
279 57 60 63 0
286 -64 -65 -66 0
-67 -204 -257 -286 0
-78 -153 -211 -286 0
-78 -157 -210 -286 0
-79 -152 -206 -286 0
-79 -153 -205 -286 0
-79 -157 -204 -286 0
-88 -139 -193 -286 0
-89 -139 -189 -286 0
-97 -146 -170 -286 0
-97 -147 -169 -286 0
-107 -139 -171 -286 0
-108 -139 -170 -286 0
-112 -139 -169 -286 0
-119 -139 -169 -279 0
-119 -139 -170 -273 0
-119 -139 -171 -270 0
-119 -139 -188 -227 0
-119 -139 -189 -224 0
-119 -139 -193 -220 0
-119 -140 -170 -263 0
-119 -140 -171 -260 0
-119 -140 -193 -215 0
-119 -140 -196 -212 0
-119 -140 -199 -211 0
-119 -141 -169 -263 0
-119 -141 -171 -256 0
-119 -141 -189 -215 0
-119 -141 -192 -212 0
-119 -141 -199 -210 0
-119 -142 -169 -260 0
-119 -142 -170 -256 0
-119 -142 -188 -215 0
-119 -142 -192 -211 0
-119 -142 -196 -210 0
-119 -146 -170 -248 0
-119 -146 -171 -245 0
-119 -146 -193 -209 0
-119 -146 -196 -206 0
-119 -146 -199 -205 0
-119 -147 -169 -248 0
-119 -147 -171 -241 0
-119 -147 -189 -209 0
-119 -147 -192 -206 0
-119 -147 -199 -204 0
-119 -148 -169 -245 0
-119 -148 -170 -241 0
-119 -148 -188 -209 0
-119 -148 -192 -205 0
-119 -148 -196 -204 0
-119 -152 -171 -236 0
-119 -152 -181 -212 0
-119 -152 -187 -206 0
-119 -152 -199 -203 0
-119 -153 -170 -236 0
-119 -153 -181 -211 0
-119 -153 -187 -205 0
-119 -153 -196 -203 0
-119 -157 -169 -236 0
-119 -157 -181 -210 0
-119 -157 -187 -204 0
-119 -157 -192 -203 0
-120 -139 -169 -278 0
-120 -139 -170 -272 0
-120 -139 -171 -269 0
-120 -139 -188 -226 0
-120 -139 -189 -223 0
-120 -139 -193 -219 0
-120 -140 -170 -262 0
-120 -140 -171 -259 0
-120 -140 -193 -214 0
-120 -140 -195 -212 0
-120 -140 -198 -211 0
-120 -141 -169 -262 0
-120 -141 -171 -255 0
-120 -141 -189 -214 0
-120 -141 -191 -212 0
-120 -141 -198 -210 0
-120 -142 -169 -259 0
-120 -142 -170 -255 0
-120 -142 -188 -214 0
-120 -142 -191 -211 0
-120 -142 -195 -210 0
-120 -146 -170 -247 0
-120 -146 -171 -244 0
-120 -146 -193 -208 0
-120 -146 -195 -206 0
-120 -146 -198 -205 0
-120 -147 -169 -247 0
-120 -147 -171 -240 0
-120 -147 -189 -208 0
-120 -147 -191 -206 0
-120 -147 -198 -204 0
-120 -148 -169 -244 0
-120 -148 -170 -240 0
-120 -148 -188 -208 0
-120 -148 -191 -205 0
-120 -148 -195 -204 0
-120 -152 -171 -235 0
-120 -152 -180 -212 0
-120 -152 -186 -206 0
-120 -152 -198 -203 0
-120 -153 -170 -235 0
-120 -153 -180 -211 0
-120 -153 -186 -205 0
-120 -153 -195 -203 0
-120 -157 -169 -235 0
-120 -157 -180 -210 0
-120 -157 -186 -204 0
-120 -157 -191 -203 0
-121 -139 -169 -277 0
-121 -139 -170 -271 0
-121 -139 -171 -268 0
-121 -139 -188 -225 0
-121 -139 -189 -222 0
-121 -139 -193 -218 0
-121 -140 -170 -261 0
-121 -140 -171 -258 0
-121 -140 -193 -213 0
-121 -140 -194 -212 0
-121 -140 -197 -211 0
-121 -141 -169 -261 0
-121 -141 -171 -254 0
-121 -141 -189 -213 0
-121 -141 -190 -212 0
-121 -141 -197 -210 0
-121 -142 -169 -258 0
-121 -142 -170 -254 0
-121 -142 -188 -213 0
-121 -142 -190 -211 0
-121 -142 -194 -210 0
-121 -146 -170 -246 0
-121 -146 -171 -243 0
-121 -146 -193 -207 0
-121 -146 -194 -206 0
-121 -146 -197 -205 0
-121 -147 -169 -246 0
-121 -147 -171 -239 0
-121 -147 -189 -207 0
-121 -147 -190 -206 0
-121 -147 -197 -204 0
-121 -148 -169 -243 0
-121 -148 -170 -239 0
-121 -148 -188 -207 0
-121 -148 -190 -205 0
-121 -148 -194 -204 0
-121 -152 -171 -234 0
-121 -152 -179 -212 0
-121 -152 -185 -206 0
-121 -152 -197 -203 0
-121 -153 -170 -234 0
-121 -153 -179 -211 0
-121 -153 -185 -205 0
-121 -153 -194 -203 0
-121 -157 -169 -234 0
-121 -157 -179 -210 0
-121 -157 -185 -204 0
-121 -157 -190 -203 0
1 0
2 0
3 0
4 0
5 0
6 0
7 0
8 0
-9 0
-10 0
-11 0
12 0
13 0
-14 0
-15 0
-16 0
-17 0
-18 0
23 0
24 0
-25 0
-26 0
-27 0
