p cnf 84 532
-1 -2 -3 -8 -9 -14 0
1 2 3 8 9 14 0
-1 -2 -4 -8 -10 -15 0
1 2 4 8 10 15 0
-1 -2 -5 -8 -11 -16 0
1 2 5 8 11 16 0
-1 -2 -6 -8 -12 -17 0
1 2 6 8 12 17 0
-1 -2 -7 -8 -13 -18 0
1 2 7 8 13 18 0
-1 -3 -4 -9 -10 -19 0
1 3 4 9 10 19 0
-1 -3 -5 -9 -11 -20 0
1 3 5 9 11 20 0
-1 -3 -6 -9 -12 -21 0
1 3 6 9 12 21 0
-1 -3 -7 -9 -13 -22 0
1 3 7 9 13 22 0
-1 -4 -5 -10 -11 -23 0
1 4 5 10 11 23 0
-1 -4 -6 -10 -12 -24 0
1 4 6 10 12 24 0
-1 -4 -7 -10 -13 -25 0
1 4 7 10 13 25 0
-1 -5 -6 -11 -12 -26 0
1 5 6 11 12 26 0
-1 -5 -7 -11 -13 -27 0
1 5 7 11 13 27 0
-1 -6 -7 -12 -13 -28 0
1 6 7 12 13 28 0
-2 -3 -4 -14 -15 -19 0
2 3 4 14 15 19 0
-2 -3 -5 -14 -16 -20 0
2 3 5 14 16 20 0
-2 -3 -6 -14 -17 -21 0
2 3 6 14 17 21 0
-2 -3 -7 -14 -18 -22 0
2 3 7 14 18 22 0
-2 -4 -5 -15 -16 -23 0
2 4 5 15 16 23 0
-2 -4 -6 -15 -17 -24 0
2 4 6 15 17 24 0
-2 -4 -7 -15 -18 -25 0
2 4 7 15 18 25 0
-2 -5 -6 -16 -17 -26 0
2 5 6 16 17 26 0
-2 -5 -7 -16 -18 -27 0
2 5 7 16 18 27 0
-2 -6 -7 -17 -18 -28 0
2 6 7 17 18 28 0
-3 -4 -5 -19 -20 -23 0
3 4 5 19 20 23 0
-3 -4 -6 -19 -21 -24 0
3 4 6 19 21 24 0
-3 -4 -7 -19 -22 -25 0
3 4 7 19 22 25 0
-3 -5 -6 -20 -21 -26 0
3 5 6 20 21 26 0
-3 -5 -7 -20 -22 -27 0
3 5 7 20 22 27 0
-3 -6 -7 -21 -22 -28 0
3 6 7 21 22 28 0
-4 -5 -6 -23 -24 -26 0
4 5 6 23 24 26 0
-4 -5 -7 -23 -25 -27 0
4 5 7 23 25 27 0
-4 -6 -7 -24 -25 -28 0
4 6 7 24 25 28 0
-5 -6 -7 -26 -27 -28 0
5 6 7 26 27 28 0
-8 -9 -10 -14 -15 -19 0
8 9 10 14 15 19 0
-8 -9 -11 -14 -16 -20 0
8 9 11 14 16 20 0
-8 -9 -12 -14 -17 -21 0
8 9 12 14 17 21 0
-8 -9 -13 -14 -18 -22 0
8 9 13 14 18 22 0
-8 -10 -11 -15 -16 -23 0
8 10 11 15 16 23 0
-8 -10 -12 -15 -17 -24 0
8 10 12 15 17 24 0
-8 -10 -13 -15 -18 -25 0
8 10 13 15 18 25 0
-8 -11 -12 -16 -17 -26 0
8 11 12 16 17 26 0
-8 -11 -13 -16 -18 -27 0
8 11 13 16 18 27 0
-8 -12 -13 -17 -18 -28 0
8 12 13 17 18 28 0
-9 -10 -11 -19 -20 -23 0
9 10 11 19 20 23 0
-9 -10 -12 -19 -21 -24 0
9 10 12 19 21 24 0
-9 -10 -13 -19 -22 -25 0
9 10 13 19 22 25 0
-9 -11 -12 -20 -21 -26 0
9 11 12 20 21 26 0
-9 -11 -13 -20 -22 -27 0
9 11 13 20 22 27 0
-9 -12 -13 -21 -22 -28 0
9 12 13 21 22 28 0
-10 -11 -12 -23 -24 -26 0
10 11 12 23 24 26 0
-10 -11 -13 -23 -25 -27 0
10 11 13 23 25 27 0
-10 -12 -13 -24 -25 -28 0
10 12 13 24 25 28 0
-11 -12 -13 -26 -27 -28 0
11 12 13 26 27 28 0
-14 -15 -16 -19 -20 -23 0
14 15 16 19 20 23 0
-14 -15 -17 -19 -21 -24 0
14 15 17 19 21 24 0
-14 -15 -18 -19 -22 -25 0
14 15 18 19 22 25 0
-14 -16 -17 -20 -21 -26 0
14 16 17 20 21 26 0
-14 -16 -18 -20 -22 -27 0
14 16 18 20 22 27 0
-14 -17 -18 -21 -22 -28 0
14 17 18 21 22 28 0
-15 -16 -17 -23 -24 -26 0
15 16 17 23 24 26 0
-15 -16 -18 -23 -25 -27 0
15 16 18 23 25 27 0
-15 -17 -18 -24 -25 -28 0
15 17 18 24 25 28 0
-16 -17 -18 -26 -27 -28 0
16 17 18 26 27 28 0
-19 -20 -21 -23 -24 -26 0
19 20 21 23 24 26 0
-19 -20 -22 -23 -25 -27 0
19 20 22 23 25 27 0
-19 -21 -22 -24 -25 -28 0
19 21 22 24 25 28 0
-20 -21 -22 -26 -27 -28 0
20 21 22 26 27 28 0
-23 -24 -25 -26 -27 -28 0
23 24 25 26 27 28 0
29 -1 -2 -8 0
29 1 2 8 0
30 -1 -3 -9 0
30 1 3 9 0
31 -1 -4 -10 0
31 1 4 10 0
32 -1 -5 -11 0
32 1 5 11 0
33 -1 -6 -12 0
33 1 6 12 0
34 -1 -7 -13 0
34 1 7 13 0
35 -2 -3 -14 0
35 2 3 14 0
36 -2 -4 -15 0
36 2 4 15 0
37 -2 -5 -16 0
37 2 5 16 0
38 -2 -6 -17 0
38 2 6 17 0
39 -2 -7 -18 0
39 2 7 18 0
40 -3 -4 -19 0
40 3 4 19 0
41 -3 -5 -20 0
41 3 5 20 0
42 -3 -6 -21 0
42 3 6 21 0
43 -3 -7 -22 0
43 3 7 22 0
44 -4 -5 -23 0
44 4 5 23 0
45 -4 -6 -24 0
45 4 6 24 0
46 -4 -7 -25 0
46 4 7 25 0
47 -5 -6 -26 0
47 5 6 26 0
48 -5 -7 -27 0
48 5 7 27 0
49 -6 -7 -28 0
49 6 7 28 0
50 -8 -9 -14 0
50 8 9 14 0
51 -8 -10 -15 0
51 8 10 15 0
52 -8 -11 -16 0
52 8 11 16 0
53 -8 -12 -17 0
53 8 12 17 0
54 -8 -13 -18 0
54 8 13 18 0
55 -9 -10 -19 0
55 9 10 19 0
56 -9 -11 -20 0
56 9 11 20 0
57 -9 -12 -21 0
57 9 12 21 0
58 -9 -13 -22 0
58 9 13 22 0
59 -10 -11 -23 0
59 10 11 23 0
60 -10 -12 -24 0
60 10 12 24 0
61 -10 -13 -25 0
61 10 13 25 0
62 -11 -12 -26 0
62 11 12 26 0
63 -11 -13 -27 0
63 11 13 27 0
64 -12 -13 -28 0
64 12 13 28 0
65 -14 -15 -19 0
65 14 15 19 0
66 -14 -16 -20 0
66 14 16 20 0
67 -14 -17 -21 0
67 14 17 21 0
68 -14 -18 -22 0
68 14 18 22 0
69 -15 -16 -23 0
69 15 16 23 0
70 -15 -17 -24 0
70 15 17 24 0
71 -15 -18 -25 0
71 15 18 25 0
72 -16 -17 -26 0
72 16 17 26 0
73 -16 -18 -27 0
73 16 18 27 0
74 -17 -18 -28 0
74 17 18 28 0
75 -19 -20 -23 0
75 19 20 23 0
76 -19 -21 -24 0
76 19 21 24 0
77 -19 -22 -25 0
77 19 22 25 0
78 -20 -21 -26 0
78 20 21 26 0
79 -20 -22 -27 0
79 20 22 27 0
80 -21 -22 -28 0
80 21 22 28 0
81 -23 -24 -26 0
81 23 24 26 0
82 -23 -25 -27 0
82 23 25 27 0
83 -24 -25 -28 0
83 24 25 28 0
84 -26 -27 -28 0
84 26 27 28 0
-29 -75 0
-29 -76 0
-29 -77 0
-29 -78 0
-29 -79 0
-29 -80 0
-29 -81 0
-29 -82 0
-29 -83 0
-29 -84 0
-30 -69 0
-30 -70 0
-30 -71 0
-30 -72 0
-30 -73 0
-30 -74 0
-30 -81 0
-30 -82 0
-30 -83 0
-30 -84 0
-31 -66 0
-31 -67 0
-31 -68 0
-31 -72 0
-31 -73 0
-31 -74 0
-31 -78 0
-31 -79 0
-31 -80 0
-31 -84 0
-32 -65 0
-32 -67 0
-32 -68 0
-32 -70 0
-32 -71 0
-32 -74 0
-32 -76 0
-32 -77 0
-32 -80 0
-32 -83 0
-33 -65 0
-33 -66 0
-33 -68 0
-33 -69 0
-33 -71 0
-33 -73 0
-33 -75 0
-33 -77 0
-33 -79 0
-33 -82 0
-34 -65 0
-34 -66 0
-34 -67 0
-34 -69 0
-34 -70 0
-34 -72 0
-34 -75 0
-34 -76 0
-34 -78 0
-34 -81 0
-35 -59 0
-35 -60 0
-35 -61 0
-35 -62 0
-35 -63 0
-35 -64 0
-35 -81 0
-35 -82 0
-35 -83 0
-35 -84 0
-36 -56 0
-36 -57 0
-36 -58 0
-36 -62 0
-36 -63 0
-36 -64 0
-36 -78 0
-36 -79 0
-36 -80 0
-36 -84 0
-37 -55 0
-37 -57 0
-37 -58 0
-37 -60 0
-37 -61 0
-37 -64 0
-37 -76 0
-37 -77 0
-37 -80 0
-37 -83 0
-38 -55 0
-38 -56 0
-38 -58 0
-38 -59 0
-38 -61 0
-38 -63 0
-38 -75 0
-38 -77 0
-38 -79 0
-38 -82 0
-39 -55 0
-39 -56 0
-39 -57 0
-39 -59 0
-39 -60 0
-39 -62 0
-39 -75 0
-39 -76 0
-39 -78 0
-39 -81 0
-40 -52 0
-40 -53 0
-40 -54 0
-40 -62 0
-40 -63 0
-40 -64 0
-40 -72 0
-40 -73 0
-40 -74 0
-40 -84 0
-41 -51 0
-41 -53 0
-41 -54 0
-41 -60 0
-41 -61 0
-41 -64 0
-41 -70 0
-41 -71 0
-41 -74 0
-41 -83 0
-42 -51 0
-42 -52 0
-42 -54 0
-42 -59 0
-42 -61 0
-42 -63 0
-42 -69 0
-42 -71 0
-42 -73 0
-42 -82 0
-43 -51 0
-43 -52 0
-43 -53 0
-43 -59 0
-43 -60 0
-43 -62 0
-43 -69 0
-43 -70 0
-43 -72 0
-43 -81 0
-44 -50 0
-44 -53 0
-44 -54 0
-44 -57 0
-44 -58 0
-44 -64 0
-44 -67 0
-44 -68 0
-44 -74 0
-44 -80 0
-45 -50 0
-45 -52 0
-45 -54 0
-45 -56 0
-45 -58 0
-45 -63 0
-45 -66 0
-45 -68 0
-45 -73 0
-45 -79 0
-46 -50 0
-46 -52 0
-46 -53 0
-46 -56 0
-46 -57 0
-46 -62 0
-46 -66 0
-46 -67 0
-46 -72 0
-46 -78 0
-47 -50 0
-47 -51 0
-47 -54 0
-47 -55 0
-47 -58 0
-47 -61 0
-47 -65 0
-47 -68 0
-47 -71 0
-47 -77 0
-48 -50 0
-48 -51 0
-48 -53 0
-48 -55 0
-48 -57 0
-48 -60 0
-48 -65 0
-48 -67 0
-48 -70 0
-48 -76 0
-49 -50 0
-49 -51 0
-49 -52 0
-49 -55 0
-49 -56 0
-49 -59 0
-49 -65 0
-49 -66 0
-49 -69 0
-49 -75 0
-50 -81 0
-50 -82 0
-50 -83 0
-50 -84 0
-51 -78 0
-51 -79 0
-51 -80 0
-51 -84 0
-52 -76 0
-52 -77 0
-52 -80 0
-52 -83 0
-53 -75 0
-53 -77 0
-53 -79 0
-53 -82 0
-54 -75 0
-54 -76 0
-54 -78 0
-54 -81 0
-55 -72 0
-55 -73 0
-55 -74 0
-55 -84 0
-56 -70 0
-56 -71 0
-56 -74 0
-56 -83 0
-57 -69 0
-57 -71 0
-57 -73 0
-57 -82 0
-58 -69 0
-58 -70 0
-58 -72 0
-58 -81 0
-59 -67 0
-59 -68 0
-59 -74 0
-59 -80 0
-60 -66 0
-60 -68 0
-60 -73 0
-60 -79 0
-61 -66 0
-61 -67 0
-61 -72 0
-61 -78 0
-62 -65 0
-62 -68 0
-62 -71 0
-62 -77 0
-63 -65 0
-63 -67 0
-63 -70 0
-63 -76 0
-64 -65 0
-64 -66 0
-64 -69 0
-64 -75 0
-65 -84 0
-66 -83 0
-67 -82 0
-68 -81 0
-69 -80 0
-70 -79 0
-71 -78 0
-72 -77 0
-73 -76 0
-74 -75 0
